# nmr=giao b3lyp/6-31G* nosymm geom=connectivity

input

0 1
C    -1.862063    0.146560    -0.000001
C    -1.171216    1.455016    -0.000002
C    0.149036    1.864752    -0.000002
C    1.457492    1.173904    -0.000001
C    1.867226    -0.146348    0.000001
C    1.176379    -1.454805    0.000002
C    -0.143873    -1.864541    0.000002
C    -1.452329    -1.173693    0.000001
As    -3.863861    2.087694    -0.000003
As    -2.085007    -3.866338    0.000004
As    3.869024    -2.087483    0.000003
As    2.090170    3.866549    -0.000003
As    -4.259230    -1.274993    0.000000
As    -1.272516    4.261918    -0.000005
As    1.277679    -4.261707    0.000005
As    4.264393    1.275203    0.000000
C    -2.104027    2.566126    -0.000003
C    0.296967    3.309482    -0.000003
C    2.568601    2.106714    -0.000001
C    3.311958    -0.294279    0.000001
C    2.109190    -2.565914    0.000003
C    -0.291804    -3.309270    0.000003
C    -2.563438    -2.106502    0.000002
C    -3.306796    0.294491    -0.000001
Bq    2.0896094619371897    -6.75595091817512    1.0000068506050468    
Bq    1.9614487983698363    -6.688283828151905    1.000006752400242    
Bq    1.833288134802483    -6.620616738128688    1.000006654195437    
Bq    1.7051274712351296    -6.552949648105471    1.0000065559906322    
Bq    1.5769668076677759    -6.485282558082256    1.0000064577858274    
Bq    1.4488061441004225    -6.41761546805904    1.0000063595810225    
Bq    1.3206454805330683    -6.3499483780358235    1.0000062613762175    
Bq    1.192484816965715    -6.282281288012608    1.0000061631714126    
Bq    1.0643241533983616    -6.214614197989391    1.0000060649666078    
Bq    0.9361634898310083    -6.1469471079661755    1.0000059667618029    
Bq    0.8080028262636545    -6.079280017942959    1.000005868556998    
Bq    0.6798421626963012    -6.011612927919743    1.0000057703521932    
Bq    0.5516814991289474    -5.943945837896527    1.0000056721473882    
Bq    0.4235208355615936    -5.876278747873311    1.0000055739425833    
Bq    0.29536017199424025    -5.808611657850094    1.0000054757377785    
Bq    0.1671995084268869    -5.740944567826879    1.0000053775329736    
Bq    0.039038844859533114    -5.673277477803662    1.0000052793281686    
Bq    -0.08912181870782067    -5.605610387780446    1.0000051811233637    
Bq    -0.217282482275174    -5.53794329775723    1.000005082918559    
Bq    -0.3454431458425278    -5.470276207734013    1.000004984713754    
Bq    -0.4736038094098811    -5.4026091177107975    1.000004886508949    
Bq    -0.6017644729772347    -5.334942027687582    1.0000047883041443    
Bq    -0.729925136544588    -5.267274937664365    1.0000046900993393    
Bq    -0.8580858001119418    -5.19960784764115    1.0000045918945344    
Bq    -0.9862464636792956    -5.131940757617933    1.0000044936897297    
Bq    -1.114407127246649    -5.064273667594717    1.0000043954849247    
Bq    -1.2425677908140027    -4.996606577571501    1.0000042972801197    
Bq    -1.370728454381356    -4.928939487548285    1.0000041990753148    
Bq    -1.4988891179487096    -4.8612723975250685    1.00000410087051    
Bq    -1.627049781516063    -4.793605307501853    1.000004002665705    
Bq    -1.7552104450834163    -4.725938217478636    1.0000039044609002    
Bq    -1.8833711086507705    -4.6582711274554205    1.0000038062560954    
Bq    -2.011531772218124    -4.590604037432204    1.0000037080512905    
Bq    -2.139692435785477    -4.522936947408988    1.0000036098464855    
Bq    -2.2678530993528314    -4.455269857385772    1.0000035116416808    
Bq    -2.3960137629201848    -4.387602767362556    1.0000034134368758    
Bq    -2.524174426487538    -4.319935677339339    1.0000033152320709    
Bq    -2.6523350900548914    -4.252268587316124    1.000003217027266    
Bq    -2.7804957536222457    -4.184601497292907    1.0000031188224612    
Bq    -2.908656417189599    -4.116934407269691    1.0000030206176562    
Bq    -3.0368170807569523    -4.049267317246475    1.0000029224128513    
Bq    -3.164977744324306    -3.9816002272232587    1.0000028242080465    
Bq    -3.2931384078916595    -3.9139331372000425    1.0000027260032416    
Bq    -3.421299071459013    -3.846266047176827    1.0000026277984366    
Bq    -3.549459735026366    -3.7785989571536107    1.000002529593632    
Bq    -3.6776203985937204    -3.710931867130394    1.000002431388827    
Bq    -3.8057810621610737    -3.643264777107178    1.000002333184022    
Bq    -3.933941725728427    -3.5755976870839623    1.000002234979217    
Bq    -4.062102389295782    -3.5079305970607457    1.0000021367744123    
Bq    -4.190263052863135    -3.4402635070375296    1.0000020385696073    
Bq    -4.318423716430488    -3.3725964170143135    1.0000019403648024    
Bq    -4.446584379997842    -3.3049293269910978    1.0000018421599977    
Bq    -4.574745043565196    -3.237262236967881    1.0000017439551927    
Bq    -4.702905707132549    -3.169595146944665    1.0000016457503877    
Bq    -4.831066370699903    -3.101928056921449    1.000001547545583    
Bq    -4.959227034267256    -3.034260966898233    1.000001449340778    
Bq    -5.08738769783461    -2.9665938768750166    1.000001351135973    
Bq    -5.215548361401964    -2.8989267868518    1.0000012529311681    
Bq    -5.343709024969317    -2.8312596968285844    1.0000011547263634    
Bq    -5.471869688536671    -2.7635926068053682    1.0000010565215585    
Bq    -5.600030352104024    -2.6959255167821525    1.0000009583167535    
Bq    -5.728191015671378    -2.6282584267589364    1.0000008601119488    
Bq    -5.856351679238731    -2.56059133673572    1.0000007619071438    
Bq    -5.9845123428060845    -2.492924246712504    1.0000006637023389    
Bq    -6.112673006373438    -2.4252571566892875    1.0000005654975341    
Bq    -6.240833669940793    -2.3575900666660714    1.0000004672927292    
Bq    -6.368994333508145    -2.2899229766428557    1.0000003690879242    
Bq    -6.497154997075499    -2.222255886619639    1.0000002708831193    
Bq    -6.625315660642853    -2.1545887965964226    1.0000001726783145    
Bq    -6.753476324210205    -2.0869217065732073    1.0000000744735096    
Bq    2.1572765519604644    -6.627790254607797    1.000006752657035    
Bq    2.029115888393111    -6.5601231645845814    1.0000066544522304    
Bq    1.9009552248257577    -6.492456074561365    1.0000065562474254    
Bq    1.7727945612584044    -6.424788984538148    1.0000064580426204    
Bq    1.6446338976910506    -6.357121894514933    1.0000063598378157    
Bq    1.5164732341236973    -6.289454804491717    1.0000062616330108    
Bq    1.388312570556343    -6.2217877144685    1.0000061634282058    
Bq    1.2601519069889897    -6.154120624445285    1.000006065223401    
Bq    1.1319912434216364    -6.086453534422068    1.0000059670185961    
Bq    1.003830579854283    -6.018786444398852    1.0000058688137912    
Bq    0.8756699162869293    -5.951119354375636    1.0000057706089862    
Bq    0.7475092527195759    -5.88345226435242    1.0000056724041815    
Bq    0.6193485891522221    -5.8157851743292035    1.0000055741993765    
Bq    0.49118792558486835    -5.748118084305988    1.0000054759945716    
Bq    0.363027262017515    -5.680450994282771    1.0000053777897668    
Bq    0.23486659845016167    -5.6127839042595555    1.0000052795849619    
Bq    0.10670593488280787    -5.545116814236339    1.000005181380157    
Bq    -0.02145472868454591    -5.477449724213123    1.0000050831753522    
Bq    -0.14961539225189924    -5.409782634189907    1.0000049849705472    
Bq    -0.277776055819253    -5.34211554416669    1.0000048867657423    
Bq    -0.40593671938660636    -5.274448454143474    1.0000047885609373    
Bq    -0.5340973829539599    -5.206781364120259    1.0000046903561326    
Bq    -0.6622580465213133    -5.139114274097042    1.0000045921513276    
Bq    -0.790418710088667    -5.071447184073826    1.0000044939465227    
Bq    -0.9185793736560208    -5.00378009405061    1.000004395741718    
Bq    -1.0467400372233742    -4.936113004027394    1.000004297536913    
Bq    -1.174900700790728    -4.868445914004178    1.000004199332108    
Bq    -1.3030613643580813    -4.800778823980962    1.0000041011273033    
Bq    -1.4312220279254348    -4.733111733957745    1.0000040029224984    
Bq    -1.5593826914927882    -4.66544464393453    1.0000039047176934    
Bq    -1.6875433550601415    -4.597777553911313    1.0000038065128884    
Bq    -1.8157040186274958    -4.530110463888097    1.0000037083080837    
Bq    -1.943864682194849    -4.462443373864881    1.0000036101032788    
Bq    -2.0720253457622024    -4.394776283841665    1.0000035118984738    
Bq    -2.2001860093295567    -4.3271091938184485    1.000003413693669    
Bq    -2.32834667289691    -4.259442103795233    1.0000033154888641    
Bq    -2.4565073364642633    -4.191775013772016    1.0000032172840592    
Bq    -2.5846680000316167    -4.1241079237488005    1.0000031190792544    
Bq    -2.712828663598971    -4.056440833725584    1.0000030208744495    
Bq    -2.8409893271663242    -3.988773743702368    1.0000029226696445    
Bq    -2.9691499907336776    -3.9211066536791517    1.0000028244648396    
Bq    -3.097310654301032    -3.8534395636559355    1.0000027262600348    
Bq    -3.225471317868385    -3.7857724736327194    1.0000026280552299    
Bq    -3.3536319814357385    -3.7181053836095037    1.000002529850425    
Bq    -3.481792645003092    -3.6504382935862876    1.0000024316456202    
Bq    -3.609953308570446    -3.582771203563071    1.0000023334408152    
Bq    -3.7381139721377994    -3.515104113539855    1.0000022352360103    
Bq    -3.8662746357051527    -3.447437023516639    1.0000021370312056    
Bq    -3.9944352992725065    -3.3797699334934226    1.0000020388264006    
Bq    -4.12259596283986    -3.3121028434702064    1.0000019406215956    
Bq    -4.250756626407213    -3.2444357534469903    1.0000018424167907    
Bq    -4.3789172899745665    -3.1767686634237746    1.000001744211986    
Bq    -4.507077953541922    -3.109101573400558    1.000001646007181    
Bq    -4.635238617109275    -3.041434483377342    1.000001547802376    
Bq    -4.763399280676628    -2.9737673933541258    1.0000014495975713    
Bq    -4.891559944243982    -2.90610030333091    1.0000013513927664    
Bq    -5.019720607811335    -2.8384332133076935    1.0000012531879614    
Bq    -5.147881271378689    -2.770766123284477    1.0000011549831567    
Bq    -5.276041934946042    -2.703099033261261    1.0000010567783517    
Bq    -5.404202598513396    -2.635431943238045    1.0000009585735468    
Bq    -5.532363262080748    -2.5677648532148294    1.0000008603687418    
Bq    -5.660523925648103    -2.5000977631916133    1.000000762163937    
Bq    -5.788684589215457    -2.4324306731683967    1.0000006639591321    
Bq    -5.916845252782809    -2.364763583145181    1.0000005657543272    
Bq    -6.0450059163501635    -2.2970964931219644    1.0000004675495224    
Bq    -6.173166579917518    -2.2294294030987483    1.0000003693447175    
Bq    -6.30132724348487    -2.1617623130755326    1.0000002711399125    
Bq    -6.4294879070522235    -2.094095223052316    1.0000001729351078    
Bq    -6.557648570619579    -2.0264281330290994    1.0000000747303028    
Bq    -6.68580923418693    -1.9587610430058842    0.9999999765254979    
Bq    2.2249436419837396    -6.499629591040474    1.0000066547090236    
Bq    2.0967829784163863    -6.431962501017258    1.0000065565042187    
Bq    1.968622314849033    -6.364295410994042    1.0000064582994137    
Bq    1.8404616512816796    -6.296628320970825    1.0000063600946087    
Bq    1.7123009877143258    -6.2289612309476095    1.000006261889804    
Bq    1.5841403241469725    -6.161294140924394    1.000006163684999    
Bq    1.4559796605796183    -6.093627050901177    1.000006065480194    
Bq    1.327818997012265    -6.0259599608779615    1.0000059672753894    
Bq    1.1996583334449116    -5.958292870854745    1.0000058690705844    
Bq    1.0714976698775582    -5.890625780831529    1.0000057708657795    
Bq    0.9433370063102045    -5.822958690808313    1.0000056726609747    
Bq    0.8151763427428511    -5.755291600785097    1.0000055744561698    
Bq    0.6870156791754973    -5.68762451076188    1.0000054762513648    
Bq    0.5588550156081435    -5.619957420738665    1.0000053780465599    
Bq    0.4306943520407902    -5.552290330715448    1.0000052798417551    
Bq    0.30253368847343687    -5.484623240692232    1.0000051816369502    
Bq    0.17437302490608309    -5.416956150669016    1.0000050834321452    
Bq    0.04621236133872929    -5.3492890606458    1.0000049852273405    
Bq    -0.08194830222862405    -5.2816219706225835    1.0000048870225355    
Bq    -0.21010896579597782    -5.213954880599367    1.0000047888177306    
Bq    -0.33826962936333116    -5.146287790576151    1.0000046906129259    
Bq    -0.4664302929306847    -5.078620700552936    1.000004592408121    
Bq    -0.5945909564980381    -5.010953610529719    1.000004494203316    
Bq    -0.7227516200653918    -4.943286520506503    1.000004395998511    
Bq    -0.8509122836327456    -4.875619430483287    1.0000042977937063    
Bq    -0.979072947200099    -4.807952340460071    1.0000041995889013    
Bq    -1.1072336107674527    -4.7402852504368544    1.0000041013840963    
Bq    -1.235394274334806    -4.672618160413639    1.0000040031792916    
Bq    -1.3635549379021596    -4.604951070390422    1.0000039049744867    
Bq    -1.491715601469513    -4.5372839803672065    1.0000038067696817    
Bq    -1.6198762650368663    -4.46961689034399    1.000003708564877    
Bq    -1.7480369286042206    -4.401949800320774    1.000003610360072    
Bq    -1.876197592171574    -4.334282710297558    1.000003512155267    
Bq    -2.0043582557389272    -4.266615620274342    1.000003413950462    
Bq    -2.1325189193062815    -4.198948530251125    1.0000033157456574    
Bq    -2.260679582873635    -4.13128144022791    1.0000032175408524    
Bq    -2.388840246440988    -4.063614350204693    1.0000031193360475    
Bq    -2.5170009100083415    -3.9959472601814774    1.0000030211312427    
Bq    -2.6451615735756957    -3.928280170158261    1.0000029229264378    
Bq    -2.773322237143049    -3.8606130801350447    1.0000028247216328    
Bq    -2.9014829007104024    -3.7929459901118285    1.000002726516828    
Bq    -3.0296435642777566    -3.7252789000886124    1.0000026283120231    
Bq    -3.15780422784511    -3.6576118100653963    1.0000025301072182    
Bq    -3.2859648914124633    -3.5899447200421806    1.0000024319024132    
Bq    -3.4141255549798166    -3.5222776300189644    1.0000023336976085    
Bq    -3.542286218547171    -3.454610539995748    1.0000022354928035    
Bq    -3.670446882114524    -3.3869434499725317    1.0000021372879986    
Bq    -3.7986075456818775    -3.319276359949316    1.0000020390831938    
Bq    -3.9267682092492313    -3.2516092699260994    1.000001940878389    
Bq    -4.0549288728165855    -3.1839421799028833    1.000001842673584    
Bq    -4.183089536383939    -3.116275089879667    1.0000017444687792    
Bq    -4.311250199951292    -3.0486079998564515    1.0000016462639743    
Bq    -4.4394108635186456    -2.980940909833235    1.0000015480591693    
Bq    -4.567571527085999    -2.9132738198100188    1.0000014498543643    
Bq    -4.695732190653352    -2.8456067297868026    1.0000013516495596    
Bq    -4.823892854220706    -2.777939639763587    1.0000012534447547    
Bq    -4.952053517788061    -2.7102725497403704    1.0000011552399497    
Bq    -5.080214181355414    -2.6426054597171538    1.000001057035145    
Bq    -5.208374844922767    -2.574938369693938    1.00000095883034    
Bq    -5.336535508490121    -2.507271279670722    1.000000860625535    
Bq    -5.464696172057474    -2.4396041896475062    1.0000007624207303    
Bq    -5.592856835624827    -2.37193709962429    1.0000006642159254    
Bq    -5.721017499192182    -2.3042700096010735    1.0000005660111204    
Bq    -5.849178162759534    -2.236602919577858    1.0000004678063155    
Bq    -5.977338826326888    -2.1689358295546413    1.0000003696015107    
Bq    -6.1054994898942425    -2.101268739531425    1.0000002713967058    
Bq    -6.233660153461596    -2.0336016495082094    1.0000001731919008    
Bq    -6.361820817028949    -1.9659345594849928    1.000000074987096    
Bq    -6.4899814805963025    -1.8982674694617763    0.9999999767822911    
Bq    -6.618142144163656    -1.830600379438561    0.9999998785774863    
Bq    2.2926107320070144    -6.371468927473153    1.000006556761012    
Bq    2.164450068439661    -6.303801837449937    1.000006458556207    
Bq    2.0362894048723077    -6.23613474742672    1.000006360351402    
Bq    1.9081287413049544    -6.168467657403504    1.0000062621465973    
Bq    1.7799680777376006    -6.100800567380288    1.0000061639417923    
Bq    1.6518074141702472    -6.033133477357072    1.0000060657369874    
Bq    1.523646750602893    -5.965466387333856    1.0000059675321824    
Bq    1.3954860870355397    -5.89779929731064    1.0000058693273777    
Bq    1.2673254234681863    -5.8301322072874235    1.0000057711225727    
Bq    1.139164759900833    -5.762465117264208    1.0000056729177678    
Bq    1.0110040963334792    -5.694798027240991    1.000005574712963    
Bq    0.8828434327661259    -5.627130937217776    1.000005476508158    
Bq    0.7546827691987721    -5.559463847194559    1.0000053783033531    
Bq    0.6265221056314183    -5.491796757171343    1.0000052800985484    
Bq    0.49836144206406496    -5.424129667148127    1.0000051818937434    
Bq    0.3702007784967116    -5.356462577124911    1.0000050836889385    
Bq    0.24204011492935784    -5.2887954871016944    1.0000049854841335    
Bq    0.11387945136200404    -5.221128397078479    1.0000048872793288    
Bq    -0.014281212205349293    -5.153461307055262    1.0000047890745238    
Bq    -0.14244187577270306    -5.085794217032046    1.0000046908697189    
Bq    -0.2706025393400564    -5.01812712700883    1.0000045926649141    
Bq    -0.39876320290740996    -4.950460036985614    1.0000044944601092    
Bq    -0.5269238664747633    -4.882792946962398    1.0000043962553042    
Bq    -0.6550845300421171    -4.815125856939182    1.0000042980504995    
Bq    -0.7832451936094709    -4.747458766915965    1.0000041998456946    
Bq    -0.9114058571768242    -4.67979167689275    1.0000041016408896    
Bq    -1.039566520744178    -4.612124586869533    1.0000040034360846    
Bq    -1.1677271843115313    -4.544457496846317    1.00000390523128    
Bq    -1.295887847878885    -4.476790406823101    1.000003807026475    
Bq    -1.4240485114462382    -4.409123316799885    1.00000370882167    
Bq    -1.5522091750135916    -4.3414562267766685    1.0000036106168653    
Bq    -1.6803698385809458    -4.273789136753453    1.0000035124120603    
Bq    -1.8085305021482991    -4.206122046730236    1.0000034142072554    
Bq    -1.9366911657156525    -4.138454956707021    1.0000033160024506    
Bq    -2.0648518292830067    -4.070787866683804    1.0000032177976457    
Bq    -2.19301249285036    -4.003120776660588    1.0000031195928407    
Bq    -2.3211731564177134    -3.9354536866373717    1.0000030213880358    
Bq    -2.4493338199850667    -3.867786596614156    1.000002923183231    
Bq    -2.577494483552421    -3.8001195065909394    1.000002824978426    
Bq    -2.7056551471197743    -3.7324524165677233    1.0000027267736211    
Bq    -2.8338158106871276    -3.664785326544507    1.0000026285688164    
Bq    -2.9619764742544814    -3.597118236521291    1.0000025303640114    
Bq    -3.0901371378218347    -3.529451146498075    1.0000024321592065    
Bq    -3.218297801389188    -3.461784056474859    1.0000023339544017    
Bq    -3.3464584649565414    -3.394116966451643    1.0000022357495968    
Bq    -3.4746191285238957    -3.3264498764284265    1.0000021375447918    
Bq    -3.602779792091249    -3.2587827864052104    1.0000020393399869    
Bq    -3.7309404556586023    -3.1911156963819947    1.0000019411351821    
Bq    -3.8591011192259566    -3.123448606358778    1.0000018429303772    
Bq    -3.98726178279331    -3.055781516335562    1.0000017447255722    
Bq    -4.115422446360664    -2.988114426312346    1.0000016465207675    
Bq    -4.243583109928017    -2.92044733628913    1.0000015483159626    
Bq    -4.371743773495371    -2.8527802462659135    1.0000014501111576    
Bq    -4.499904437062725    -2.7851131562426974    1.0000013519063529    
Bq    -4.628065100630078    -2.7174460662194813    1.000001253701548    
Bq    -4.756225764197431    -2.6497789761962656    1.000001155496743    
Bq    -4.8843864277647855    -2.582111886173049    1.000001057291938    
Bq    -5.01254709133214    -2.5144447961498324    1.0000009590871333    
Bq    -5.140707754899492    -2.4467777061266167    1.0000008608823283    
Bq    -5.268868418466846    -2.3791106161034006    1.0000007626775234    
Bq    -5.397029082034199    -2.311443526080185    1.0000006644727186    
Bq    -5.525189745601553    -2.2437764360569687    1.0000005662679137    
Bq    -5.653350409168906    -2.176109346033752    1.0000004680631087    
Bq    -5.78151107273626    -2.1084422560105365    1.000000369858304    
Bq    -5.909671736303613    -2.04077516598732    1.000000271653499    
Bq    -6.037832399870968    -1.9731080759641038    1.000000173448694    
Bq    -6.165993063438321    -1.905440985940888    1.0000000752438891    
Bq    -6.294153727005674    -1.8377738959176715    0.9999999770390844    
Bq    -6.422314390573028    -1.770106805894455    0.9999998788342794    
Bq    -6.550475054140381    -1.7024397158712397    0.9999997806294746    
Bq    2.360277822030289    -6.2433082639058295    1.0000064588130002    
Bq    2.232117158462936    -6.175641173882614    1.0000063606081953    
Bq    2.1039564948955825    -6.107974083859397    1.0000062624033903    
Bq    1.9757958313282291    -6.040306993836181    1.0000061641985856    
Bq    1.8476351677608753    -5.972639903812965    1.0000060659937806    
Bq    1.719474504193522    -5.904972813789749    1.0000059677889757    
Bq    1.5913138406261678    -5.837305723766533    1.000005869584171    
Bq    1.4631531770588144    -5.769638633743317    1.000005771379366    
Bq    1.334992513491461    -5.7019715437201    1.000005673174561    
Bq    1.2068318499241077    -5.634304453696885    1.000005574969756    
Bq    1.078671186356754    -5.566637363673668    1.0000054767649513    
Bq    0.9505105227894006    -5.498970273650452    1.0000053785601464    
Bq    0.8223498592220468    -5.431303183627236    1.0000052803553414    
Bq    0.6941891956546931    -5.36363609360402    1.0000051821505367    
Bq    0.5660285320873397    -5.295969003580804    1.0000050839457317    
Bq    0.4378678685199864    -5.228301913557588    1.0000049857409268    
Bq    0.3097072049526326    -5.160634823534371    1.000004887536122    
Bq    0.18154654138527881    -5.092967733511156    1.000004789331317    
Bq    0.05338587781792546    -5.025300643487939    1.0000046911265121    
Bq    -0.07477478574942832    -4.9576335534647225    1.0000045929217072    
Bq    -0.20293544931678165    -4.889966463441507    1.0000044947169024    
Bq    -0.3310961128841352    -4.822299373418291    1.0000043965120975    
Bq    -0.45925677645148855    -4.7546322833950745    1.0000042983072925    
Bq    -0.5874174400188423    -4.686965193371859    1.0000042001024878    
Bq    -0.7155781035861961    -4.619298103348642    1.0000041018976829    
Bq    -0.8437387671535495    -4.5516310133254265    1.000004003692878    
Bq    -0.9718994307209032    -4.48396392330221    1.0000039054880732    
Bq    -1.1000600942882566    -4.416296833278994    1.0000038072832682    
Bq    -1.2282207578556101    -4.348629743255778    1.0000037090784633    
Bq    -1.3563814214229635    -4.280962653232562    1.0000036108736583    
Bq    -1.4845420849903168    -4.213295563209345    1.0000035126688536    
Bq    -1.612702748557671    -4.14562847318613    1.0000034144640486    
Bq    -1.7408634121250244    -4.077961383162913    1.0000033162592437    
Bq    -1.8690240756923777    -4.010294293139697    1.000003218054439    
Bq    -1.997184739259732    -3.942627203116481    1.000003119849634    
Bq    -2.1253454028270853    -3.8749601130932647    1.000003021644829    
Bq    -2.2535060663944386    -3.8072930230700486    1.0000029234400243    
Bq    -2.381666729961792    -3.739625933046833    1.0000028252352193    
Bq    -2.509827393529146    -3.6719588430236163    1.0000027270304144    
Bq    -2.6379880570964995    -3.6042917530004    1.0000026288256096    
Bq    -2.766148720663853    -3.536624662977184    1.0000025306208047    
Bq    -2.894309384231207    -3.468957572953968    1.0000024324159997    
Bq    -3.0224700477985604    -3.4012904829307518    1.0000023342111948    
Bq    -3.1506307113659138    -3.333623392907536    1.00000223600639    
Bq    -3.278791374933267    -3.26595630288432    1.000002137801585    
Bq    -3.4069520385006213    -3.1982892128611033    1.0000020395967801    
Bq    -3.5351127020679747    -3.130622122837887    1.0000019413919754    
Bq    -3.663273365635328    -3.0629550328146715    1.0000018431871704    
Bq    -3.791434029202682    -2.995287942791455    1.0000017449823655    
Bq    -3.919594692770035    -2.927620852768239    1.0000016467775608    
Bq    -4.0477553563373885    -2.8599537627450227    1.0000015485727558    
Bq    -4.175916019904742    -2.792286672721807    1.0000014503679509    
Bq    -4.304076683472097    -2.7246195826985904    1.000001352163146    
Bq    -4.43223734703945    -2.6569524926753743    1.0000012539583412    
Bq    -4.560398010606804    -2.589285402652158    1.0000011557535362    
Bq    -4.688558674174157    -2.5216183126289424    1.0000010575487313    
Bq    -4.81671933774151    -2.453951222605726    1.0000009593439265    
Bq    -4.9448800013088645    -2.3862841325825093    1.0000008611391216    
Bq    -5.073040664876217    -2.3186170425592936    1.0000007629343166    
Bq    -5.201201328443571    -2.2509499525360774    1.0000006647295119    
Bq    -5.329361992010924    -2.1832828625128617    1.000000566524707    
Bq    -5.457522655578278    -2.1156157724896456    1.000000468319902    
Bq    -5.585683319145632    -2.047948682466429    1.000000370115097    
Bq    -5.7138439827129845    -1.9802815924432133    1.0000002719102923    
Bq    -5.842004646280339    -1.912614502419997    1.0000001737054873    
Bq    -5.970165309847693    -1.8449474123967806    1.0000000755006824    
Bq    -6.0983259734150455    -1.777280322373565    0.9999999772958775    
Bq    -6.226486636982399    -1.7096132323503483    0.9999998790910727    
Bq    -6.354647300549754    -1.6419461423271318    0.9999997808862677    
Bq    -6.4828079641171055    -1.5742790523039165    0.9999996826814629    
Bq    2.4279449120535643    -6.115147600338506    1.0000063608649885    
Bq    2.299784248486211    -6.047480510315291    1.0000062626601836    
Bq    2.1716235849188577    -5.979813420292075    1.0000061644553788    
Bq    2.0434629213515043    -5.912146330268858    1.0000060662505739    
Bq    1.9153022577841505    -5.844479240245642    1.000005968045769    
Bq    1.7871415942167972    -5.776812150222426    1.000005869840964    
Bq    1.658980930649443    -5.70914506019921    1.0000057716361592    
Bq    1.5308202670820896    -5.641477970175994    1.0000056734313543    
Bq    1.4026596035147363    -5.573810880152778    1.0000055752265493    
Bq    1.274498939947383    -5.506143790129562    1.0000054770217446    
Bq    1.1463382763800292    -5.438476700106346    1.0000053788169396    
Bq    1.0181776128126758    -5.370809610083129    1.0000052806121347    
Bq    0.890016949245322    -5.303142520059913    1.00000518240733    
Bq    0.7618562856779683    -5.235475430036697    1.000005084202525    
Bq    0.6336956221106149    -5.167808340013481    1.00000498599772    
Bq    0.5055349585432616    -5.100141249990265    1.000004887792915    
Bq    0.3773742949759078    -5.032474159967049    1.0000047895881103    
Bq    0.24921363140855401    -4.9648070699438325    1.0000046913833054    
Bq    0.12105296784120066    -4.897139979920617    1.0000045931785004    
Bq    -0.007107695726153119    -4.8294728898974    1.0000044949736957    
Bq    -0.13526835929350645    -4.7618057998741845    1.0000043967688907    
Bq    -0.26342902286086    -4.694138709850968    1.0000042985640858    
Bq    -0.39158968642821335    -4.626471619827752    1.000004200359281    
Bq    -0.5197503499955671    -4.558804529804536    1.000004102154476    
Bq    -0.6479110135629209    -4.491137439781319    1.0000040039496711    
Bq    -0.7760716771302743    -4.423470349758103    1.0000039057448662    
Bq    -0.904232340697628    -4.355803259734888    1.0000038075400615    
Bq    -1.0323930042649814    -4.288136169711671    1.0000037093352565    
Bq    -1.160553667832335    -4.220469079688455    1.0000036111304516    
Bq    -1.2887143313996883    -4.152801989665239    1.0000035129256468    
Bq    -1.4168749949670416    -4.085134899642023    1.0000034147208419    
Bq    -1.5450356585343958    -4.017467809618807    1.000003316516037    
Bq    -1.6731963221017492    -3.9498007195955904    1.0000032183112322    
Bq    -1.8013569856691025    -3.8821336295723747    1.0000031201064272    
Bq    -1.9295176492364567    -3.814466539549158    1.0000030219016223    
Bq    -2.05767831280381    -3.746799449525942    1.0000029236968173    
Bq    -2.1858389763711634    -3.679132359502726    1.0000028254920126    
Bq    -2.3139996399385168    -3.61146526947951    1.0000027272872076    
Bq    -2.442160303505871    -3.5437981794562936    1.0000026290824027    
Bq    -2.5703209670732243    -3.4761310894330775    1.000002530877598    
Bq    -2.6984816306405777    -3.4084639994098618    1.000002432672793    
Bq    -2.826642294207932    -3.340796909386645    1.000002334467988    
Bq    -2.9548029577752852    -3.273129819363429    1.0000022362631833    
Bq    -3.0829636213426386    -3.205462729340213    1.0000021380583783    
Bq    -3.211124284909992    -3.1377956393169972    1.0000020398535734    