# nmr=giao b3lyp/6-31G* nosymm geom=connectivity guess=huckel

input

0 1
C    -2.08041042   -0.63815612    0.17651221
C    -2.01654633    0.58618101   -0.58942208
C    -1.12577779    1.72517268   -0.66829094
C    -0.04600527    2.19762521    0.16884111
C    -1.19364901   -1.74724583    0.45945199
C     1.06518277    1.64912648    0.91351201
C     2.00361129    0.57940790    0.64570640
C     0.04307982   -2.19984575   -0.13694365
C     2.09838766   -0.52381877   -0.28362062
C     1.25250851   -1.62842708   -0.68540462
As   -3.63008718   -2.45294264    1.54065914
As   -1.13620536   -4.47050226    0.84544612
As    1.30970895   -4.28963656   -1.37723545
As    3.68860209   -2.08621431   -1.89300380
As    4.68538656    0.07178236    0.39866719
As    3.25029602    2.16307321    2.51486062
As    0.90165429    4.29134708    1.66214473
As   -1.08986988    4.45786873   -0.97640799
As   -3.30291011    2.38069934   -2.22813429
As   -4.67694587   -0.06552957   -0.48753250
N    -3.37300295   -0.96120886    0.47305861
N    -1.86123376   -2.77519129    1.06432813
N     0.07293617   -3.56198661   -0.21453736
N     1.95122584   -2.54802566   -1.41614807
N     3.39522179   -0.74690455   -0.64647634
N     3.21472401    0.84036577    1.21855069
N     1.59589035    2.57261470    1.77008025
N    -0.07899977    3.55739985    0.27990023
N    -1.68983808    2.74771499   -1.37827628
N    -3.22693436    0.87525657   -1.15028546
Bq   -5.00000000   -5.00000000    6.87852690
Bq   -4.79591837   -5.00000000    6.63598918
Bq   -4.59183673   -5.00000000    6.39282732
Bq   -4.38775510   -5.00000000    6.14904130
Bq   -4.18367347   -5.00000000    5.90463115
Bq   -3.97959184   -5.00000000    5.65959685
Bq   -3.77551020   -5.00000000    5.41393840
Bq   -3.57142857   -5.00000000    5.16765581
Bq   -3.36734694   -5.00000000    4.92074908
Bq   -3.16326531   -5.00000000    4.67321820
Bq   -2.95918367   -5.00000000    4.42506318
Bq   -2.75510204   -5.00000000    4.17628401
Bq   -2.55102041   -5.00000000    3.92688070
Bq   -2.34693878   -5.00000000    3.67685324
Bq   -2.14285714   -5.00000000    3.42620163
Bq   -1.93877551   -5.00000000    3.17492589
Bq   -1.73469388   -5.00000000    2.92302599
Bq   -1.53061224   -5.00000000    2.67050196
Bq   -1.32653061   -5.00000000    2.41735378
Bq   -1.12244898   -5.00000000    2.16358145
Bq   -0.91836735   -5.00000000    1.90918498
Bq   -0.71428571   -5.00000000    1.65416436
Bq   -0.51020408   -5.00000000    1.39851960
Bq   -0.30612245   -5.00000000    1.14225070
Bq   -0.10204082   -5.00000000    0.88535765
Bq    0.10204082   -5.00000000    0.62784045
Bq    0.30612245   -5.00000000    0.36969911
Bq    0.51020408   -5.00000000    0.11093363
Bq    0.71428571   -5.00000000   -0.14845600
Bq    0.91836735   -5.00000000   -0.40846978
Bq    1.12244898   -5.00000000   -0.66910770
Bq    1.32653061   -5.00000000   -0.93036976
Bq    1.53061224   -5.00000000   -1.19225597
Bq    1.73469388   -5.00000000   -1.45476632
Bq    1.93877551   -5.00000000   -1.71790082
Bq    2.14285714   -5.00000000   -1.98165946
Bq    2.34693878   -5.00000000   -2.24604225
Bq    2.55102041   -5.00000000   -2.51104918
Bq    2.75510204   -5.00000000   -2.77668026
Bq    2.95918367   -5.00000000   -3.04293548
Bq    3.16326531   -5.00000000   -3.30981484
Bq    3.36734694   -5.00000000   -3.57731836
Bq    3.57142857   -5.00000000   -3.84544601
Bq    3.77551020   -5.00000000   -4.11419781
Bq    3.97959184   -5.00000000   -4.38357376
Bq    4.18367347   -5.00000000   -4.65357385
Bq    4.38775510   -5.00000000   -4.92419808
Bq    4.59183673   -5.00000000   -5.19544646
Bq    4.79591837   -5.00000000   -5.46731898
Bq    5.00000000   -5.00000000   -5.73981565
Bq   -5.00000000   -4.79591837    6.60153359
Bq   -4.79591837   -4.79591837    6.37044564
Bq   -4.59183673   -4.79591837    6.13873353
Bq   -4.38775510   -4.79591837    5.90639728
Bq   -4.18367347   -4.79591837    5.67343689
Bq   -3.97959184   -4.79591837    5.43985235
Bq   -3.77551020   -4.79591837    5.20564367
Bq   -3.57142857   -4.79591837    4.97081084
Bq   -3.36734694   -4.79591837    4.73535387
Bq   -3.16326531   -4.79591837    4.49927275
Bq   -2.95918367   -4.79591837    4.26256749
Bq   -2.75510204   -4.79591837    4.02523808
Bq   -2.55102041   -4.79591837    3.78728453
Bq   -2.34693878   -4.79591837    3.54870683
Bq   -2.14285714   -4.79591837    3.30950499
Bq   -1.93877551   -4.79591837    3.06967901
Bq   -1.73469388   -4.79591837    2.82922888
Bq   -1.53061224   -4.79591837    2.58815460
Bq   -1.32653061   -4.79591837    2.34645618
Bq   -1.12244898   -4.79591837    2.10413362
Bq   -0.91836735   -4.79591837    1.86118691
Bq   -0.71428571   -4.79591837    1.61761606
Bq   -0.51020408   -4.79591837    1.37342106
Bq   -0.30612245   -4.79591837    1.12860191
Bq   -0.10204082   -4.79591837    0.88315862
Bq    0.10204082   -4.79591837    0.63709119
Bq    0.30612245   -4.79591837    0.39039961
Bq    0.51020408   -4.79591837    0.14308389
Bq    0.71428571   -4.79591837   -0.10485598
Bq    0.91836735   -4.79591837   -0.35341999
Bq    1.12244898   -4.79591837   -0.60260815
Bq    1.32653061   -4.79591837   -0.85242045
Bq    1.53061224   -4.79591837   -1.10285689
Bq    1.73469388   -4.79591837   -1.35391748
Bq    1.93877551   -4.79591837   -1.60560222
Bq    2.14285714   -4.79591837   -1.85791110
Bq    2.34693878   -4.79591837   -2.11084413
Bq    2.55102041   -4.79591837   -2.36440130
Bq    2.75510204   -4.79591837   -2.61858261
Bq    2.95918367   -4.79591837   -2.87338807
Bq    3.16326531   -4.79591837   -3.12881767
Bq    3.36734694   -4.79591837   -3.38487142
Bq    3.57142857   -4.79591837   -3.64154932
Bq    3.77551020   -4.79591837   -3.89885136
Bq    3.97959184   -4.79591837   -4.15677754
Bq    4.18367347   -4.79591837   -4.41532787
Bq    4.38775510   -4.79591837   -4.67450234
Bq    4.59183673   -4.79591837   -4.93430096
Bq    4.79591837   -4.79591837   -5.19472372
Bq    5.00000000   -4.79591837   -5.45577063
Bq   -5.00000000   -4.59183673    6.32512440
Bq   -4.79591837   -4.59183673    6.10548620
Bq   -4.59183673   -4.59183673    5.88522386
Bq   -4.38775510   -4.59183673    5.66433737
Bq   -4.18367347   -4.59183673    5.44282674
Bq   -3.97959184   -4.59183673    5.22069197
Bq   -3.77551020   -4.59183673    4.99793305
Bq   -3.57142857   -4.59183673    4.77454998
Bq   -3.36734694   -4.59183673    4.55054277
Bq   -3.16326531   -4.59183673    4.32591141
Bq   -2.95918367   -4.59183673    4.10065591
Bq   -2.75510204   -4.59183673    3.87477627
Bq   -2.55102041   -4.59183673    3.64827248
Bq   -2.34693878   -4.59183673    3.42114455
Bq   -2.14285714   -4.59183673    3.19339247
Bq   -1.93877551   -4.59183673    2.96501624
Bq   -1.73469388   -4.59183673    2.73601588
Bq   -1.53061224   -4.59183673    2.50639136
Bq   -1.32653061   -4.59183673    2.27614270
Bq   -1.12244898   -4.59183673    2.04526990
Bq   -0.91836735   -4.59183673    1.81377295
Bq   -0.71428571   -4.59183673    1.58165186
Bq   -0.51020408   -4.59183673    1.34890663
Bq   -0.30612245   -4.59183673    1.11553724
Bq   -0.10204082   -4.59183673    0.88154372
Bq    0.10204082   -4.59183673    0.64692605
Bq    0.30612245   -4.59183673    0.41168423
Bq    0.51020408   -4.59183673    0.17581827
Bq    0.71428571   -4.59183673   -0.06067184
Bq    0.91836735   -4.59183673   -0.29778609
Bq    1.12244898   -4.59183673   -0.53552448
Bq    1.32653061   -4.59183673   -0.77388702
Bq    1.53061224   -4.59183673   -1.01287370
Bq    1.73469388   -4.59183673   -1.25248453
Bq    1.93877551   -4.59183673   -1.49271951
Bq    2.14285714   -4.59183673   -1.73357863
Bq    2.34693878   -4.59183673   -1.97506189
Bq    2.55102041   -4.59183673   -2.21716930
Bq    2.75510204   -4.59183673   -2.45990085
Bq    2.95918367   -4.59183673   -2.70325655
Bq    3.16326531   -4.59183673   -2.94723639
Bq    3.36734694   -4.59183673   -3.19184038
Bq    3.57142857   -4.59183673   -3.43706851
Bq    3.77551020   -4.59183673   -3.68292079
Bq    3.97959184   -4.59183673   -3.92939721
Bq    4.18367347   -4.59183673   -4.17649777
Bq    4.38775510   -4.59183673   -4.42422248
Bq    4.59183673   -4.59183673   -4.67257134
Bq    4.79591837   -4.59183673   -4.92154434
Bq    5.00000000   -4.59183673   -5.17114148
Bq   -5.00000000   -4.38775510    6.04929932
Bq   -4.79591837   -4.38775510    5.84111089
Bq   -4.59183673   -4.38775510    5.63229831
Bq   -4.38775510   -4.38775510    5.42286158
Bq   -4.18367347   -4.38775510    5.21280071
Bq   -3.97959184   -4.38775510    5.00211570
Bq   -3.77551020   -4.38775510    4.79080654
Bq   -3.57142857   -4.38775510    4.57887323
Bq   -3.36734694   -4.38775510    4.36631579
Bq   -3.16326531   -4.38775510    4.15313419
Bq   -2.95918367   -4.38775510    3.93932845
Bq   -2.75510204   -4.38775510    3.72489857
Bq   -2.55102041   -4.38775510    3.50984454
Bq   -2.34693878   -4.38775510    3.29416637
Bq   -2.14285714   -4.38775510    3.07786405
Bq   -1.93877551   -4.38775510    2.86093759
Bq   -1.73469388   -4.38775510    2.64338699
Bq   -1.53061224   -4.38775510    2.42521224
Bq   -1.32653061   -4.38775510    2.20641334
Bq   -1.12244898   -4.38775510    1.98699030
Bq   -0.91836735   -4.38775510    1.76694311
Bq   -0.71428571   -4.38775510    1.54627178
Bq   -0.51020408   -4.38775510    1.32497631
Bq   -0.30612245   -4.38775510    1.10305669
Bq   -0.10204082   -4.38775510    0.88051292
Bq    0.10204082   -4.38775510    0.65734502
Bq    0.30612245   -4.38775510    0.43355296
Bq    0.51020408   -4.38775510    0.20913676
Bq    0.71428571   -4.38775510   -0.01590358
Bq    0.91836735   -4.38775510   -0.24156807
Bq    1.12244898   -4.38775510   -0.46785670
Bq    1.32653061   -4.38775510   -0.69476948
Bq    1.53061224   -4.38775510   -0.92230640
Bq    1.73469388   -4.38775510   -1.15046747
Bq    1.93877551   -4.38775510   -1.37925268
Bq    2.14285714   -4.38775510   -1.60866204
Bq    2.34693878   -4.38775510   -1.83869554
Bq    2.55102041   -4.38775510   -2.06935318
Bq    2.75510204   -4.38775510   -2.30063498
Bq    2.95918367   -4.38775510   -2.53254091
Bq    3.16326531   -4.38775510   -2.76507099
Bq    3.36734694   -4.38775510   -2.99822522
Bq    3.57142857   -4.38775510   -3.23200359
Bq    3.77551020   -4.38775510   -3.46640610
Bq    3.97959184   -4.38775510   -3.70143276
Bq    4.18367347   -4.38775510   -3.93708356
Bq    4.38775510   -4.38775510   -4.17335851
Bq    4.59183673   -4.38775510   -4.41025761
Bq    4.79591837   -4.38775510   -4.64778085
Bq    5.00000000   -4.38775510   -4.88592823
Bq   -5.00000000   -4.18367347    5.77405835
Bq   -4.79591837   -4.18367347    5.57731968
Bq   -4.59183673   -4.18367347    5.37995686
Bq   -4.38775510   -4.18367347    5.18196990
Bq   -4.18367347   -4.18367347    4.98335879
Bq   -3.97959184   -4.18367347    4.78412354
Bq   -3.77551020   -4.18367347    4.58426414
Bq   -3.57142857   -4.18367347    4.38378060
Bq   -3.36734694   -4.18367347    4.18267292
Bq   -3.16326531   -4.18367347    3.98094108
Bq   -2.95918367   -4.18367347    3.77858511
Bq   -2.75510204   -4.18367347    3.57560499
Bq   -2.55102041   -4.18367347    3.37200072
Bq   -2.34693878   -4.18367347    3.16777231
Bq   -2.14285714   -4.18367347    2.96291976
Bq   -1.93877551   -4.18367347    2.75744306
Bq   -1.73469388   -4.18367347    2.55134221
Bq   -1.53061224   -4.18367347    2.34461722
Bq   -1.32653061   -4.18367347    2.13726809
Bq   -1.12244898   -4.18367347    1.92929481
Bq   -0.91836735   -4.18367347    1.72069739
Bq   -0.71428571   -4.18367347    1.51147582
Bq   -0.51020408   -4.18367347    1.30163011
Bq   -0.30612245   -4.18367347    1.09116025
Bq   -0.10204082   -4.18367347    0.88006625
Bq    0.10204082   -4.18367347    0.66834810
Bq    0.30612245   -4.18367347    0.45600581
Bq    0.51020408   -4.18367347    0.24303937
Bq    0.71428571   -4.18367347    0.02944879
Bq    0.91836735   -4.18367347   -0.18476594
Bq    1.12244898   -4.18367347   -0.39960481
Bq    1.32653061   -4.18367347   -0.61506782
Bq    1.53061224   -4.18367347   -0.83115499
Bq    1.73469388   -4.18367347   -1.04786629
Bq    1.93877551   -4.18367347   -1.26520174
Bq    2.14285714   -4.18367347   -1.48316133
Bq    2.34693878   -4.18367347   -1.70174507
Bq    2.55102041   -4.18367347   -1.92095296
Bq    2.75510204   -4.18367347   -2.14078499
Bq    2.95918367   -4.18367347   -2.36124116
Bq    3.16326531   -4.18367347   -2.58232148
Bq    3.36734694   -4.18367347   -2.80402594
Bq    3.57142857   -4.18367347   -3.02635455
Bq    3.77551020   -4.18367347   -3.24930730
Bq    3.97959184   -4.18367347   -3.47288420
Bq    4.18367347   -4.18367347   -3.69708524
Bq    4.38775510   -4.18367347   -3.92191043
Bq    4.59183673   -4.18367347   -4.14735976
Bq    4.79591837   -4.18367347   -4.37343324
Bq    5.00000000   -4.18367347   -4.60013086
Bq   -5.00000000   -3.97959184    5.49940150
Bq   -4.79591837   -3.97959184    5.31411259
Bq   -4.59183673   -3.97959184    5.12819954
Bq   -4.38775510   -3.97959184    4.94166233
Bq   -4.18367347   -3.97959184    4.75450099
Bq   -3.97959184   -3.97959184    4.56671550
Bq   -3.77551020   -3.97959184    4.37830586
Bq   -3.57142857   -3.97959184    4.18927208
Bq   -3.36734694   -3.97959184    3.99961416
Bq   -3.16326531   -3.97959184    3.80933209
Bq   -2.95918367   -3.97959184    3.61842588
Bq   -2.75510204   -3.97959184    3.42689552
Bq   -2.55102041   -3.97959184    3.23474101
Bq   -2.34693878   -3.97959184    3.04196236
Bq   -2.14285714   -3.97959184    2.84855957
Bq   -1.93877551   -3.97959184    2.65453263
Bq   -1.73469388   -3.97959184    2.45988155
Bq   -1.53061224   -3.97959184    2.26460632
Bq   -1.32653061   -3.97959184    2.06870695
Bq   -1.12244898   -3.97959184    1.87218344
Bq   -0.91836735   -3.97959184    1.67503577
Bq   -0.71428571   -3.97959184    1.47726397
Bq   -0.51020408   -3.97959184    1.27886802
Bq   -0.30612245   -3.97959184    1.07984792
Bq   -0.10204082   -3.97959184    0.88020368
Bq    0.10204082   -3.97959184    0.67993530
Bq    0.30612245   -3.97959184    0.47904277
Bq    0.51020408   -3.97959184    0.27752609
Bq    0.71428571   -3.97959184    0.07538527
Bq    0.91836735   -3.97959184   -0.12737969
Bq    1.12244898   -3.97959184   -0.33076880
Bq    1.32653061   -3.97959184   -0.53478206
Bq    1.53061224   -3.97959184   -0.73941945
Bq    1.73469388   -3.97959184   -0.94468100
Bq    1.93877551   -3.97959184   -1.15056669
Bq    2.14285714   -3.97959184   -1.35707652
Bq    2.34693878   -3.97959184   -1.56421050
Bq    2.55102041   -3.97959184   -1.77196862
Bq    2.75510204   -3.97959184   -1.98035088
Bq    2.95918367   -3.97959184   -2.18935730
Bq    3.16326531   -3.97959184   -2.39898785
Bq    3.36734694   -3.97959184   -2.60924255
Bq    3.57142857   -3.97959184   -2.82012140
Bq    3.77551020   -3.97959184   -3.03162439
Bq    3.97959184   -3.97959184   -3.24375153
Bq    4.18367347   -3.97959184   -3.45650281
Bq    4.38775510   -3.97959184   -3.66987823
Bq    4.59183673   -3.97959184   -3.88387780
Bq    4.79591837   -3.97959184   -4.09850152
Bq    5.00000000   -3.97959184   -4.31374937
Bq   -5.00000000   -3.77551020    5.22532876
Bq   -4.79591837   -3.77551020    5.05148962
Bq   -4.59183673   -3.77551020    4.87702632
Bq   -4.38775510   -3.77551020    4.70193888
Bq   -4.18367347   -3.77551020    4.52622730
Bq   -3.97959184   -3.77551020    4.34989157
Bq   -3.77551020   -3.77551020    4.17293170
Bq   -3.57142857   -3.77551020    3.99534768
Bq   -3.36734694   -3.77551020    3.81713952
Bq   -3.16326531   -3.77551020    3.63830721
Bq   -2.95918367   -3.77551020    3.45885076
Bq   -2.75510204   -3.77551020    3.27877016
Bq   -2.55102041   -3.77551020    3.09806542
Bq   -2.34693878   -3.77551020    2.91673653
Bq   -2.14285714   -3.77551020    2.73478350
Bq   -1.93877551   -3.77551020    2.55220633
Bq   -1.73469388   -3.77551020    2.36900500
Bq   -1.53061224   -3.77551020    2.18517954
Bq   -1.32653061   -3.77551020    2.00072993
Bq   -1.12244898   -3.77551020    1.81565617
Bq   -0.91836735   -3.77551020    1.62995828
Bq   -0.71428571   -3.77551020    1.44363623
Bq   -0.51020408   -3.77551020    1.25669004
Bq   -0.30612245   -3.77551020    1.06911971
Bq   -0.10204082   -3.77551020    0.88092523
Bq    0.10204082   -3.77551020    0.69210661
Bq    0.30612245   -3.77551020    0.50266384
Bq    0.51020408   -3.77551020    0.31259693
Bq    0.71428571   -3.77551020    0.12190587
Bq    0.91836735   -3.77551020   -0.06940933
Bq    1.12244898   -3.77551020   -0.26134868
Bq    1.32653061   -3.77551020   -0.45391217
Bq    1.53061224   -3.77551020   -0.64709981
Bq    1.73469388   -3.77551020   -0.84091159
Bq    1.93877551   -3.77551020   -1.03534752
Bq    2.14285714   -3.77551020   -1.23040759
Bq    2.34693878   -3.77551020   -1.42609180
Bq    2.55102041   -3.77551020   -1.62240016
Bq    2.75510204   -3.77551020   -1.81933267
Bq    2.95918367   -3.77551020   -2.01688932
Bq    3.16326531   -3.77551020   -2.21507011
Bq    3.36734694   -3.77551020   -2.41387505
Bq    3.57142857   -3.77551020   -2.61330414
Bq    3.77551020   -3.77551020   -2.81335736
Bq    3.97959184   -3.77551020   -3.01403474
Bq    4.18367347   -3.77551020   -3.21533626
Bq    4.38775510   -3.77551020   -3.41726192
Bq    4.59183673   -3.77551020   -3.61981173
Bq    4.79591837   -3.77551020   -3.82298568
Bq    5.00000000   -3.77551020   -4.02678378
Bq   -5.00000000   -3.57142857    4.95184014
Bq   -4.79591837   -3.57142857    4.78945075
Bq   -4.59183673   -3.57142857    4.62643722
Bq   -4.38775510   -3.57142857    4.46279954
Bq   -4.18367347   -3.57142857    4.29853772
Bq   -3.97959184   -3.57142857    4.13365176
Bq   -3.77551020   -3.57142857    3.96814164
Bq   -3.57142857   -3.57142857    3.80200739
Bq   -3.36734694   -3.57142857    3.63524899
Bq   -3.16326531   -3.57142857    3.46786644
Bq   -2.95918367   -3.57142857    3.29985975
Bq   -2.75510204   -3.57142857    3.13122892
Bq   -2.55102041   -3.57142857    2.96197394
Bq   -2.34693878   -3.57142857    2.79209481
Bq   -2.14285714   -3.57142857    2.62159154
Bq   -1.93877551   -3.57142857    2.45046413
Bq   -1.73469388   -3.57142857    2.27871257
Bq   -1.53061224   -3.57142857    2.10633687
Bq   -1.32653061   -3.57142857    1.93333702
Bq   -1.12244898   -3.57142857    1.75971303
Bq   -0.91836735   -3.57142857    1.58546489
Bq   -0.71428571   -3.57142857    1.41059261
Bq   -0.51020408   -3.57142857    1.23509618
Bq   -0.30612245   -3.57142857    1.05897561
Bq   -0.10204082   -3.57142857    0.88223089
Bq    0.10204082   -3.57142857    0.70486203
Bq    0.30612245   -3.57142857    0.52686903
Bq    0.51020408   -3.57142857    0.34825187
Bq    0.71428571   -3.57142857    0.16901058
Bq    0.91836735   -3.57142857   -0.01085486
Bq    1.12244898   -3.57142857   -0.19134445
Bq    1.32653061   -3.57142857   -0.37245818
Bq    1.53061224   -3.57142857   -0.55419605
Bq    1.73469388   -3.57142857   -0.73655807
Bq    1.93877551   -3.57142857   -0.91954423
Bq    2.14285714   -3.57142857   -1.10315454
Bq    2.34693878   -3.57142857   -1.28738900
Bq    2.55102041   -3.57142857   -1.47224759
Bq    2.75510204   -3.57142857   -1.65773034
Bq    2.95918367   -3.57142857   -1.84383723
Bq    3.16326531   -3.57142857   -2.03056826
Bq    3.36734694   -3.57142857   -2.21792344
Bq    3.57142857   -3.57142857   -2.40590276
Bq    3.77551020   -3.57142857   -2.59450622
Bq    3.97959184   -3.57142857   -2.78373384
Bq    4.18367347   -3.57142857   -2.97358559
Bq    4.38775510   -3.57142857   -3.16406149
Bq    4.59183673   -3.57142857   -3.35516154
Bq    4.79591837   -3.57142857   -3.54688573
Bq    5.00000000   -3.57142857   -3.73923406
Bq   -5.00000000   -3.36734694    4.67893563
Bq   -4.79591837   -3.36734694    4.52799601
Bq   -4.59183673   -3.36734694    4.37643224
Bq   -4.38775510   -3.36734694    4.22424432
Bq   -4.18367347   -3.36734694    4.07143226
Bq   -3.97959184   -3.36734694    3.91799606
Bq   -3.77551020   -3.36734694    3.76393571
Bq   -3.57142857   -3.36734694    3.60925121
Bq   -3.36734694   -3.36734694    3.45394257
Bq   -3.16326531   -3.36734694    3.29800979
Bq   -2.95918367   -3.36734694    3.14145286
Bq   -2.75510204   -3.36734694    2.98427179
Bq   -2.55102041   -3.36734694    2.82646657
Bq   -2.34693878   -3.36734694    2.66803721
Bq   -2.14285714   -3.36734694    2.50898370
Bq   -1.93877551   -3.36734694    2.34930605
Bq   -1.73469388   -3.36734694    2.18900425
Bq   -1.53061224   -3.36734694    2.02807831
Bq   -1.32653061   -3.36734694    1.86652823
Bq   -1.12244898   -3.36734694    1.70435400
Bq   -0.91836735   -3.36734694    1.54155562
Bq   -0.71428571   -3.36734694    1.37813310
Bq   -0.51020408   -3.36734694    1.21408643
Bq   -0.30612245   -3.36734694    1.04941562
Bq   -0.10204082   -3.36734694    0.88412067
Bq    0.10204082   -3.36734694    0.71820157
Bq    0.30612245   -3.36734694    0.55165833
Bq    0.51020408   -3.36734694    0.38449094
Bq    0.71428571   -3.36734694    0.21669940
Bq    0.91836735   -3.36734694    0.04828373
Bq    1.12244898   -3.36734694   -0.12075610
Bq    1.32653061   -3.36734694   -0.29042007
Bq    1.53061224   -3.36734694   -0.46070818
Bq    1.73469388   -3.36734694   -0.63162044
Bq    1.93877551   -3.36734694   -0.80315684
Bq    2.14285714   -3.36734694   -0.97531738
Bq    2.34693878   -3.36734694   -1.14810208
Bq    2.55102041   -3.36734694   -1.32151091
Bq    2.75510204   -3.36734694   -1.49554389
Bq    2.95918367   -3.36734694   -1.67020102
Bq    3.16326531   -3.36734694   -1.84548229
Bq    3.36734694   -3.36734694   -2.02138770
Bq    3.57142857   -3.36734694   -2.19791727
Bq    3.77551020   -3.36734694   -2.37507097
Bq    3.97959184   -3.36734694   -2.55284882
Bq    4.18367347   -3.36734694   -2.73125081
Bq    4.38775510   -3.36734694   -2.91027695
Bq    4.59183673   -3.36734694   -3.08992724
Bq    4.79591837   -3.36734694   -3.27020166
Bq    5.00000000   -3.36734694   -3.45110024
Bq   -5.00000000   -3.16326531    4.40661524
Bq   -4.79591837   -3.16326531    4.26712537
Bq   -4.59183673   -3.16326531    4.12701136
Bq   -4.38775510   -3.16326531    3.98627321
Bq   -4.18367347   -3.16326531    3.84491091
Bq   -3.97959184   -3.16326531    3.70292447
Bq   -3.77551020   -3.16326531    3.56031388
Bq   -3.57142857   -3.16326531    3.41707915
Bq   -3.36734694   -3.16326531    3.27322027
Bq   -3.16326531   -3.16326531    3.12873725
Bq   -2.95918367   -3.16326531    2.98363009
Bq   -2.75510204   -3.16326531    2.83789878
Bq   -2.55102041   -3.16326531    2.69154332
Bq   -2.34693878   -3.16326531    2.54456372
Bq   -2.14285714   -3.16326531    2.39695997
Bq   -1.93877551   -3.16326531    2.24873208
Bq   -1.73469388   -3.16326531    2.09988005
Bq   -1.53061224   -3.16326531    1.95040387
Bq   -1.32653061   -3.16326531    1.80030355
Bq   -1.12244898   -3.16326531    1.64957908
Bq   -0.91836735   -3.16326531    1.49823046
Bq   -0.71428571   -3.16326531    1.34625770
Bq   -0.51020408   -3.16326531    1.19366080
Bq   -0.30612245   -3.16326531    1.04043975
Bq   -0.10204082   -3.16326531    0.88659456
Bq    0.10204082   -3.16326531    0.73212522
Bq    0.30612245   -3.16326531    0.57703174
Bq    0.51020408   -3.16326531    0.42131411
Bq    0.71428571   -3.16326531    0.26497234
Bq    0.91836735   -3.16326531    0.10800643
Bq    1.12244898   -3.16326531   -0.04958363
Bq    1.32653061   -3.16326531   -0.20779784
Bq    1.53061224   -3.16326531   -0.36663619
Bq    1.73469388   -3.16326531   -0.52609869
Bq    1.93877551   -3.16326531   -0.68618533
Bq    2.14285714   -3.16326531   -0.84689611
Bq    2.34693878   -3.16326531   -1.00823104
Bq    2.55102041   -3.16326531   -1.17019012
Bq    2.75510204   -3.16326531   -1.33277333
Bq    2.95918367   -3.16326531   -1.49598070
Bq    3.16326531   -3.16326531   -1.65981221
Bq    3.36734694   -3.16326531   -1.82426786
Bq    3.57142857   -3.16326531   -1.98934766
Bq    3.77551020   -3.16326531   -2.15505160
Bq    3.97959184   -3.16326531   -2.32137969
Bq    4.18367347   -3.16326531   -2.48833192
Bq    4.38775510   -3.16326531   -2.65590830
Bq    4.59183673   -3.16326531   -2.82410882
Bq    4.79591837   -3.16326531   -2.99293349
Bq    5.00000000   -3.16326531   -3.16238230
Bq   -5.00000000   -2.95918367    4.13487895
Bq   -4.79591837   -2.95918367    4.00683885
Bq   -4.59183673   -2.95918367    3.87817461
Bq   -4.38775510   -2.95918367    3.74888621
Bq   -4.18367347   -2.95918367    3.61897368
Bq   -3.97959184   -2.95918367    3.48843700
Bq   -3.77551020   -2.95918367    3.35727617
Bq   -3.57142857   -2.95918367    3.22549120
Bq   -3.36734694   -2.95918367    3.09308209
Bq   -3.16326531   -2.95918367    2.96004883
Bq   -2.95918367   -2.95918367    2.82639142
Bq   -2.75510204   -2.95918367    2.69210987
Bq   -2.55102041   -2.95918367    2.55720418
Bq   -2.34693878   -2.95918367    2.42167434
Bq   -2.14285714   -2.95918367    2.28552036
Bq   -1.93877551   -2.95918367    2.14874223
Bq   -1.73469388   -2.95918367    2.01133996
Bq   -1.53061224   -2.95918367    1.87331354
Bq   -1.32653061   -2.95918367    1.73466298
Bq   -1.12244898   -2.95918367    1.59538827
Bq   -0.91836735   -2.95918367    1.45548942
Bq   -0.71428571   -2.95918367    1.31496642
Bq   -0.51020408   -2.95918367    1.17381928
Bq   -0.30612245   -2.95918367    1.03204800
Bq   -0.10204082   -2.95918367    0.88965257
Bq    0.10204082   -2.95918367    0.74663299
Bq    0.30612245   -2.95918367    0.60298927
Bq    0.51020408   -2.95918367    0.45872141
Bq    0.71428571   -2.95918367    0.31382940
Bq    0.91836735   -2.95918367    0.16831324
Bq    1.12244898   -2.95918367    0.02217294
Bq    1.32653061   -2.95918367   -0.12459150
Bq    1.53061224   -2.95918367   -0.27198009
Bq    1.73469388   -2.95918367   -0.41999282
Bq    1.93877551   -2.95918367   -0.56862970
Bq    2.14285714   -2.95918367   -0.71789073
Bq    2.34693878   -2.95918367   -0.86777589
Bq    2.55102041   -2.95918367   -1.01828521
Bq    2.75510204   -2.95918367   -1.16941866
Bq    2.95918367   -2.95918367   -1.32117626
Bq    3.16326531   -2.95918367   -1.47355801
Bq    3.36734694   -2.95918367   -1.62656390
Bq    3.57142857   -2.95918367   -1.78019394
Bq    3.77551020   -2.95918367   -1.93444812
Bq    3.97959184   -2.95918367   -2.08932644
Bq    4.18367347   -2.95918367   -2.24482892
Bq    4.38775510   -2.95918367   -2.40095553
Bq    4.59183673   -2.95918367   -2.55770629
Bq    4.79591837   -2.95918367   -2.71508119
Bq    5.00000000   -2.95918367   -2.87308024
Bq   -5.00000000   -2.75510204    3.86372679
Bq   -4.79591837   -2.75510204    3.74713645
Bq   -4.59183673   -2.75510204    3.62992196
Bq   -4.38775510   -2.75510204    3.51208333
Bq   -4.18367347   -2.75510204    3.39362056
Bq   -3.97959184   -2.75510204    3.27453364
Bq   -3.77551020   -2.75510204    3.15482258
Bq   -3.57142857   -2.75510204    3.03448737
Bq   -3.36734694   -2.75510204    2.91352802
Bq   -3.16326531   -2.75510204    2.79194452
Bq   -2.95918367   -2.75510204    2.66973688
Bq   -2.75510204   -2.75510204    2.54690509
Bq   -2.55102041   -2.75510204    2.42344916
Bq   -2.34693878   -2.75510204    2.29936908
Bq   -2.14285714   -2.75510204    2.17466486
Bq   -1.93877551   -2.75510204    2.04933649
Bq   -1.73469388   -2.75510204    1.92338398
Bq   -1.53061224   -2.75510204    1.79680733
Bq   -1.32653061   -2.75510204    1.66960653
Bq   -1.12244898   -2.75510204    1.54178158
Bq   -0.91836735   -2.75510204    1.41333249
Bq   -0.71428571   -2.75510204    1.28425926
Bq   -0.51020408   -2.75510204    1.15456188
Bq   -0.30612245   -2.75510204    1.02424035
Bq   -0.10204082   -2.75510204    0.89329469
Bq    0.10204082   -2.75510204    0.76172487
Bq    0.30612245   -2.75510204    0.62953091
Bq    0.51020408   -2.75510204    0.49671281
Bq    0.71428571   -2.75510204    0.36327056
Bq    0.91836735   -2.75510204    0.22920417
Bq    1.12244898   -2.75510204    0.09451363
Bq    1.32653061   -2.75510204   -0.04080105
Bq    1.53061224   -2.75510204   -0.17673988
Bq    1.73469388   -2.75510204   -0.31330285
Bq    1.93877551   -2.75510204   -0.45048996
Bq    2.14285714   -2.75510204   -0.58830122
Bq    2.34693878   -2.75510204   -0.72673663
Bq    2.55102041   -2.75510204   -0.86579618
Bq    2.75510204   -2.75510204   -1.00547988
Bq    2.95918367   -2.75510204   -1.14578772
Bq    3.16326531   -2.75510204   -1.28671970
Bq    3.36734694   -2.75510204   -1.42827583
Bq    3.57142857   -2.75510204   -1.57045610
Bq    3.77551020   -2.75510204   -1.71326052
Bq    3.97959184   -2.75510204   -1.85668909
Bq    4.18367347   -2.75510204   -2.00074179
Bq    4.38775510   -2.75510204   -2.14541865
Bq    4.59183673   -2.75510204   -2.29071965
Bq    4.79591837   -2.75510204   -2.43664479
Bq    5.00000000   -2.75510204   -2.58319408
Bq   -5.00000000   -2.55102041    3.59315873
Bq   -4.79591837   -2.55102041    3.48801815
Bq   -4.59183673   -2.55102041    3.38225343
Bq   -4.38775510   -2.55102041    3.27586456
Bq   -4.18367347   -2.55102041    3.16885155
Bq   -3.97959184   -2.55102041    3.06121440
Bq   -3.77551020   -2.55102041    2.95295309
Bq   -3.57142857   -2.55102041    2.84406765
Bq   -3.36734694   -2.55102041    2.73455806
Bq   -3.16326531   -2.55102041    2.62442432
Bq   -2.95918367   -2.55102041    2.51366644
Bq   -2.75510204   -2.55102041    2.40228442
Bq   -2.55102041   -2.55102041    2.29027825
Bq   -2.34693878   -2.55102041    2.17764793
Bq   -2.14285714   -2.55102041    2.06439347
Bq   -1.93877551   -2.55102041    1.95051487
Bq   -1.73469388   -2.55102041    1.83601212
Bq   -1.53061224   -2.55102041    1.72088523
Bq   -1.32653061   -2.55102041    1.60513419
Bq   -1.12244898   -2.55102041    1.48875900
Bq   -0.91836735   -2.55102041    1.37175968
Bq   -0.71428571   -2.55102041    1.25413620
Bq   -0.51020408   -2.55102041    1.13588859
Bq   -0.30612245   -2.55102041    1.01701683
Bq   -0.10204082   -2.55102041    0.89752092
Bq    0.10204082   -2.55102041    0.77740087
Bq    0.30612245   -2.55102041    0.65665667
Bq    0.51020408   -2.55102041    0.53528833
Bq    0.71428571   -2.55102041    0.41329584
Bq    0.91836735   -2.55102041    0.29067921
Bq    1.12244898   -2.55102041    0.16743844
Bq    1.32653061   -2.55102041    0.04357352
Bq    1.53061224   -2.55102041   -0.08091555
Bq    1.73469388   -2.55102041   -0.20602876
Bq    1.93877551   -2.55102041   -0.33176611