# nmr=giao b3lyp/6-31G* nosymm geom=connectivity guess=huckel

input

0 1
C    -1.78087831   -1.19314113   -0.41399758
C    -0.88738502   -1.94341269    0.43952318
C     0.53978895   -1.98352852    0.68150692
C     1.67835473   -1.42935330   -0.01596559
C    -2.04189822    0.20380559   -0.69128649
C     2.04193757   -0.20377460   -0.69116102
C     1.78099587    1.19325593   -0.41388700
C    -1.67827121    1.42936206   -0.01614250
C     0.88743267    1.94352929    0.43956190
C    -0.53978276    1.98354784    0.68154555
As   -3.99595064   -1.19670029   -2.04166062
As   -4.05362772    1.99125281   -1.26259526
As   -2.62674504    3.70256325    1.18504544
As    0.50592497    4.12076212    2.07482491
As    3.05260079    3.57722844    0.04472683
As    3.99583296    1.19656917   -2.04190475
As    4.05378926   -1.99116635   -1.26230525
As    2.62645487   -3.70293341    1.18482132
As   -0.50601647   -4.12076974    2.07478458
As   -3.05259943   -3.57707118    0.04475702
N    -2.80966926   -1.97620577   -0.85160154
N    -3.18325217    0.35936432   -1.42703717
N    -2.71462942    2.31706562   -0.03299431
N    -0.88915969    3.08789152    1.40695183
N     1.49182670    3.07561282    0.90464797
N     2.80975645    1.97621510   -0.85168860
N     3.18323904   -0.35939277   -1.42696270
N     2.71472910   -2.31707752   -0.03280919
N     0.88901600   -3.08800850    1.40676578
N    -1.49181456   -3.07549011    0.90453633
Bq   -4.70286460   -4.70286460    0.15478504
Bq   -4.51091094   -4.70286460    0.43718150
Bq   -4.31895728   -4.70286460    0.69010686
Bq   -4.12700363   -4.70286460    0.93442083
Bq   -3.93504997   -4.70286460    1.18592800
Bq   -3.74309631   -4.70286460    1.42599312
Bq   -3.55114265   -4.70286460    1.64152168
Bq   -3.35918900   -4.70286460    1.84504491
Bq   -3.16723534   -4.70286460    2.04998778
Bq   -2.97528168   -4.70286460    2.25230559
Bq   -2.78332803   -4.70286460    2.44025184
Bq   -2.59137437   -4.70286460    2.60954345
Bq   -2.39942071   -4.70286460    2.76517572
Bq   -2.20746706   -4.70286460    2.91390367
Bq   -2.01551340   -4.70286460    3.05838682
Bq   -1.82355974   -4.70286460    3.19696454
Bq   -1.63160608   -4.70286460    3.32643881
Bq   -1.43965243   -4.70286460    3.44445531
Bq   -1.24769877   -4.70286460    3.55024317
Bq   -1.05574511   -4.70286460    3.64419638
Bq   -0.86379146   -4.70286460    3.72715858
Bq   -0.67183780   -4.70286460    3.79991605
Bq   -0.47988414   -4.70286460    3.86299746
Bq   -0.28793049   -4.70286460    3.91667978
Bq   -0.09597683   -4.70286460    3.96107468
Bq    0.09597683   -4.70286460    3.99621401
Bq    0.28793049   -4.70286460    4.02209788
Bq    0.47988414   -4.70286460    4.03869470
Bq    0.67183780   -4.70286460    4.04589301
Bq    0.86379146   -4.70286460    4.04341605
Bq    1.05574511   -4.70286460    4.03073532
Bq    1.24769877   -4.70286460    4.00706468
Bq    1.43965243   -4.70286460    3.97156060
Bq    1.63160608   -4.70286460    3.92382911
Bq    1.82355974   -4.70286460    3.86464114
Bq    2.01551340   -4.70286460    3.79635092
Bq    2.20746706   -4.70286460    3.72215643
Bq    2.39942071   -4.70286460    3.64371815
Bq    2.59137437   -4.70286460    3.55837641
Bq    2.78332803   -4.70286460    3.45937598
Bq    2.97528168   -4.70286460    3.34172137
Bq    3.16723534   -4.70286460    3.20969540
Bq    3.35918900   -4.70286460    3.07504433
Bq    3.55114265   -4.70286460    2.94181264
Bq    3.74309631   -4.70286460    2.79657511
Bq    3.93504997   -4.70286460    2.62680031
Bq    4.12700363   -4.70286460    2.44558256
Bq    4.31895728   -4.70286460    2.27155694
Bq    4.51091094   -4.70286460    2.08891877
Bq    4.70286460   -4.70286460    1.87680827
Bq   -4.70286460   -4.51091094   -0.03900109
Bq   -4.51091094   -4.51091094    0.22173141
Bq   -4.31895728   -4.51091094    0.47533546
Bq   -4.12700363   -4.51091094    0.73685951
Bq   -3.93504997   -4.51091094    0.98315997
Bq   -3.74309631   -4.51091094    1.20438401
Bq   -3.55114265   -4.51091094    1.41872940
Bq   -3.35918900   -4.51091094    1.63666328
Bq   -3.16723534   -4.51091094    1.84720179
Bq   -2.97528168   -4.51091094    2.03825684
Bq   -2.78332803   -4.51091094    2.21169065
Bq   -2.59137437   -4.51091094    2.37712601
Bq   -2.39942071   -4.51091094    2.54004521
Bq   -2.20746706   -4.51091094    2.69842670
Bq   -2.01551340   -4.51091094    2.84703992
Bq   -1.82355974   -4.51091094    2.98225983
Bq   -1.63160608   -4.51091094    3.10359215
Bq   -1.43965243   -4.51091094    3.21257508
Bq   -1.24769877   -4.51091094    3.31111777
Bq   -1.05574511   -4.51091094    3.40050798
Bq   -0.86379146   -4.51091094    3.48122074
Bq   -0.67183780   -4.51091094    3.55316085
Bq   -0.47988414   -4.51091094    3.61598421
Bq   -0.28793049   -4.51091094    3.66932709
Bq   -0.09597683   -4.51091094    3.71291989
Bq    0.09597683   -4.51091094    3.74662481
Bq    0.28793049   -4.51091094    3.77044196
Bq    0.47988414   -4.51091094    3.78450940
Bq    0.67183780   -4.51091094    3.78909693
Bq    0.86379146   -4.51091094    3.78456850
Bq    1.05574511   -4.51091094    3.77126838
Bq    1.24769877   -4.51091094    3.74929192
Bq    1.43965243   -4.51091094    3.71816418
Bq    1.63160608   -4.51091094    3.67659745
Bq    1.82355974   -4.51091094    3.62268259
Bq    2.01551340   -4.51091094    3.55488137
Bq    2.20746706   -4.51091094    3.47368798
Bq    2.39942071   -4.51091094    3.38272733
Bq    2.59137437   -4.51091094    3.28722983
Bq    2.78332803   -4.51091094    3.18921684
Bq    2.97528168   -4.51091094    3.08320583
Bq    3.16723534   -4.51091094    2.95957380
Bq    3.35918900   -4.51091094    2.81645827
Bq    3.55114265   -4.51091094    2.66594710
Bq    3.74309631   -4.51091094    2.51902392
Bq    3.93504997   -4.51091094    2.36522137
Bq    4.12700363   -4.51091094    2.18634150
Bq    4.31895728   -4.51091094    1.99223698
Bq    4.51091094   -4.51091094    1.80605130
Bq    4.70286460   -4.51091094    1.61273593
Bq   -4.70286460   -4.31895728   -0.24241394
Bq   -4.51091094   -4.31895728    0.01899725
Bq   -4.31895728   -4.31895728    0.28953493
Bq   -4.12700363   -4.31895728    0.54323008
Bq   -3.93504997   -4.31895728    0.77155457
Bq   -3.74309631   -4.31895728    0.99654564
Bq   -3.55114265   -4.31895728    1.22558067
Bq   -3.35918900   -4.31895728    1.44259728
Bq   -3.16723534   -4.31895728    1.63755093
Bq   -2.97528168   -4.31895728    1.81843344
Bq   -2.78332803   -4.31895728    1.99652912
Bq   -2.59137437   -4.31895728    2.17306446
Bq   -2.39942071   -4.31895728    2.34121203
Bq   -2.20746706   -4.31895728    2.49478495
Bq   -2.01551340   -4.31895728    2.63277686
Bq   -1.82355974   -4.31895728    2.75803544
Bq   -1.63160608   -4.31895728    2.87395408
Bq   -1.43965243   -4.31895728    2.98241650
Bq   -1.24769877   -4.31895728    3.08358438
Bq   -1.05574511   -4.31895728    3.17664127
Bq   -0.86379146   -4.31895728    3.26057817
Bq   -0.67183780   -4.31895728    3.33462846
Bq   -0.47988414   -4.31895728    3.39836689
Bq   -0.28793049   -4.31895728    3.45162965
Bq   -0.09597683   -4.31895728    3.49439022
Bq    0.09597683   -4.31895728    3.52666072
Bq    0.28793049   -4.31895728    3.54844129
Bq    0.47988414   -4.31895728    3.55972001
Bq    0.67183780   -4.31895728    3.56052365
Bq    0.86379146   -4.31895728    3.55101622
Bq    1.05574511   -4.31895728    3.53162314
Bq    1.24769877   -4.31895728    3.50311117
Bq    1.43965243   -4.31895728    3.46648941
Bq    1.63160608   -4.31895728    3.42257437
Bq    1.82355974   -4.31895728    3.37120437
Bq    2.01551340   -4.31895728    3.31049565
Bq    2.20746706   -4.31895728    3.23705474
Bq    2.39942071   -4.31895728    3.14803384
Bq    2.59137437   -4.31895728    3.04443915
Bq    2.78332803   -4.31895728    2.93245735
Bq    2.97528168   -4.31895728    2.81891565
Bq    3.16723534   -4.31895728    2.70258733
Bq    3.35918900   -4.31895728    2.57218784
Bq    3.55114265   -4.31895728    2.41972512
Bq    3.74309631   -4.31895728    2.25524347
Bq    3.93504997   -4.31895728    2.09480506
Bq    4.12700363   -4.31895728    1.93103233
Bq    4.31895728   -4.31895728    1.74188790
Bq    4.51091094   -4.31895728    1.53589976
Bq    4.70286460   -4.31895728    1.33903687
Bq   -4.70286460   -4.12700363   -0.43459396
Bq   -4.51091094   -4.12700363   -0.15597269
Bq   -4.31895728   -4.12700363    0.10673608
Bq   -4.12700363   -4.12700363    0.34293011
Bq   -3.93504997   -4.12700363    0.57739362
Bq   -3.74309631   -4.12700363    0.81618409
Bq   -3.55114265   -4.12700363    1.03969261
Bq   -3.35918900   -4.12700363    1.24019334
Bq   -3.16723534   -4.12700363    1.43049689
Bq   -2.97528168   -4.12700363    1.62136827
Bq   -2.78332803   -4.12700363    1.80895547
Bq   -2.59137437   -4.12700363    1.98335603
Bq   -2.39942071   -4.12700363    2.14024433
Bq   -2.20746706   -4.12700363    2.28273506
Bq   -2.01551340   -4.12700363    2.41626592
Bq   -1.82355974   -4.12700363    2.54398417
Bq   -1.63160608   -4.12700363    2.66579061
Bq   -1.43965243   -4.12700363    2.77980477
Bq   -1.24769877   -4.12700363    2.88407435
Bq   -1.05574511   -4.12700363    2.97744392
Bq   -0.86379146   -4.12700363    3.05960996
Bq   -0.67183780   -4.12700363    3.13080077
Bq   -0.47988414   -4.12700363    3.19143575
Bq   -0.28793049   -4.12700363    3.24190870
Bq   -0.09597683   -4.12700363    3.28249501
Bq    0.09597683   -4.12700363    3.31333110
Bq    0.28793049   -4.12700363    3.33441709
Bq    0.47988414   -4.12700363    3.34561681
Bq    0.67183780   -4.12700363    3.34665507
Bq    0.86379146   -4.12700363    3.33713829
Bq    1.05574511   -4.12700363    3.31664725
Bq    1.24769877   -4.12700363    3.28495378
Bq    1.43965243   -4.12700363    3.24236149
Bq    1.63160608   -4.12700363    3.19002589
Bq    1.82355974   -4.12700363    3.12989926
Bq    2.01551340   -4.12700363    3.06386205
Bq    2.20746706   -4.12700363    2.99201336
Bq    2.39942071   -4.12700363    2.91120584
Bq    2.59137437   -4.12700363    2.81600158
Bq    2.78332803   -4.12700363    2.70328574
Bq    2.97528168   -4.12700363    2.57738369
Bq    3.16723534   -4.12700363    2.44819768
Bq    3.35918900   -4.12700363    2.31957946
Bq    3.55114265   -4.12700363    2.18076379
Bq    3.74309631   -4.12700363    2.01893983
Bq    3.93504997   -4.12700363    1.84183320
Bq    4.12700363   -4.12700363    1.66905263
Bq    4.31895728   -4.12700363    1.49454049
Bq    4.51091094   -4.12700363    1.29351243
Bq    4.70286460   -4.12700363    1.07657064
Bq   -4.70286460   -3.93504997   -0.59973688
Bq   -4.51091094   -3.93504997   -0.32632233
Bq   -4.31895728   -3.93504997   -0.08158952
Bq   -4.12700363   -3.93504997    0.16074353
Bq   -3.93504997   -3.93504997    0.40853730
Bq   -3.74309631   -3.93504997    0.63956576
Bq   -3.55114265   -3.93504997    0.84697566
Bq   -3.35918900   -3.93504997    1.04705355
Bq   -3.16723534   -3.93504997    1.24950306
Bq   -2.97528168   -3.93504997    1.44602896
Bq   -2.78332803   -3.93504997    1.62543786
Bq   -2.59137437   -3.93504997    1.78676878
Bq   -2.39942071   -3.93504997    1.93697095
Bq   -2.20746706   -3.93504997    2.08214982
Bq   -2.01551340   -3.93504997    2.22316195
Bq   -1.82355974   -3.93504997    2.35706830
Bq   -1.63160608   -3.93504997    2.48047196
Bq   -1.43965243   -3.93504997    2.59153581
Bq   -1.24769877   -3.93504997    2.69014853
Bq   -1.05574511   -3.93504997    2.77715650
Bq   -0.86379146   -3.93504997    2.85357585
Bq   -0.67183780   -3.93504997    2.92016597
Bq   -0.47988414   -3.93504997    2.97733964
Bq   -0.28793049   -3.93504997    3.02524906
Bq   -0.09597683   -3.93504997    3.06391264
Bq    0.09597683   -3.93504997    3.09331431
Bq    0.28793049   -3.93504997    3.11345421
Bq    0.47988414   -3.93504997    3.12434864
Bq    0.67183780   -3.93504997    3.12597939
Bq    0.86379146   -3.93504997    3.11819448
Bq    1.05574511   -3.93504997    3.10058130
Bq    1.24769877   -3.93504997    3.07238060
Bq    1.43965243   -3.93504997    3.03257635
Bq    1.63160608   -3.93504997    2.98032223
Bq    1.82355974   -3.93504997    2.91572955
Bq    2.01551340   -3.93504997    2.84063542
Bq    2.20746706   -3.93504997    2.75843664
Bq    2.39942071   -3.93504997    2.67207214
Bq    2.59137437   -3.93504997    2.58068520
Bq    2.78332803   -3.93504997    2.47817016
Bq    2.97528168   -3.93504997    2.35757760
Bq    3.16723534   -3.93504997    2.21986824
Bq    3.35918900   -3.93504997    2.07623524
Bq    3.55114265   -3.93504997    1.93497359
Bq    3.74309631   -3.93504997    1.78637941
Bq    3.93504997   -3.93504997    1.61416598
Bq    4.12700363   -3.93504997    1.42518632
Bq    4.31895728   -3.93504997    1.24166633
Bq    4.51091094   -3.93504997    1.05574542
Bq    4.70286460   -3.93504997    0.84114151
Bq   -4.70286460   -3.74309631   -0.75647835
Bq   -4.51091094   -3.74309631   -0.50190486
Bq   -4.31895728   -3.74309631   -0.25340503
Bq   -4.12700363   -3.74309631    0.00272741
Bq   -3.93504997   -3.74309631    0.24275917
Bq   -3.74309631   -3.74309631    0.45799185
Bq   -3.55114265   -3.74309631    0.66712358
Bq   -3.35918900   -3.74309631    0.87979742
Bq   -3.16723534   -3.74309631    1.08442114
Bq   -2.97528168   -3.74309631    1.26928001
Bq   -2.78332803   -3.74309631    1.43686385
Bq   -2.59137437   -3.74309631    1.59691337
Bq   -2.39942071   -3.74309631    1.75456582
Bq   -2.20746706   -3.74309631    1.90744984
Bq   -2.01551340   -3.74309631    2.05025164
Bq   -1.82355974   -3.74309631    2.17948249
Bq   -1.63160608   -3.74309631    2.29483085
Bq   -1.43965243   -3.74309631    2.39794573
Bq   -1.24769877   -3.74309631    2.49075475
Bq   -1.05574511   -3.74309631    2.57450730
Bq   -0.86379146   -3.74309631    2.64962519
Bq   -0.67183780   -3.74309631    2.71597030
Bq   -0.47988414   -3.74309631    2.77317300
Bq   -0.28793049   -3.74309631    2.82085835
Bq   -0.09597683   -3.74309631    2.85875366
Bq    0.09597683   -3.74309631    2.88672092
Bq    0.28793049   -3.74309631    2.90476027
Bq    0.47988414   -3.74309631    2.91300993
Bq    0.67183780   -3.74309631    2.91174282
Bq    0.86379146   -3.74309631    2.90133411
Bq    1.05574511   -3.74309631    2.88215356
Bq    1.24769877   -3.74309631    2.85433946
Bq    1.43965243   -3.74309631    2.81747008
Bq    1.63160608   -3.74309631    2.77029611
Bq    1.82355974   -3.74309631    2.71088991
Bq    2.01551340   -3.74309631    2.63760245
Bq    2.20746706   -3.74309631    2.55074518
Bq    2.39942071   -3.74309631    2.45380670
Bq    2.59137437   -3.74309631    2.35210065
Bq    2.78332803   -3.74309631    2.24799820
Bq    2.97528168   -3.74309631    2.13636187
Bq    3.16723534   -3.74309631    2.00745071
Bq    3.35918900   -3.74309631    1.85877468
Bq    3.55114265   -3.74309631    1.70204824
Bq    3.74309631   -3.74309631    1.54886342
Bq    3.93504997   -3.74309631    1.38957694
Bq    4.12700363   -3.74309631    1.20549047
Bq    4.31895728   -3.74309631    1.00530226
Bq    4.51091094   -3.74309631    0.81274550
Bq    4.70286460   -3.74309631    0.61411384
Bq   -4.70286460   -3.55114265   -0.91791335
Bq   -4.51091094   -3.55114265   -0.66452304
Bq   -4.31895728   -3.55114265   -0.40133356
Bq   -4.12700363   -3.55114265   -0.15072762
Bq   -3.93504997   -3.55114265    0.07320552
Bq   -3.74309631   -3.55114265    0.29016002
Bq   -3.55114265   -3.55114265    0.51188684
Bq   -3.35918900   -3.55114265    0.72482000
Bq   -3.16723534   -3.55114265    0.91627001
Bq   -2.97528168   -3.55114265    1.09133585
Bq   -2.78332803   -3.55114265    1.26175936
Bq   -2.59137437   -3.55114265    1.43107713
Bq   -2.39942071   -3.55114265    1.59377059
Bq   -2.20746706   -3.55114265    1.74316183
Bq   -2.01551340   -3.55114265    1.87698826
Bq   -1.82355974   -3.55114265    1.99723021
Bq   -1.63160608   -3.55114265    2.10716538
Bq   -1.43965243   -3.55114265    2.20904798
Bq   -1.24769877   -3.55114265    2.30349754
Bq   -1.05574511   -3.55114265    2.39000538
Bq   -0.86379146   -3.55114265    2.46767509
Bq   -0.67183780   -3.55114265    2.53571605
Bq   -0.47988414   -3.55114265    2.59361967
Bq   -0.28793049   -3.55114265    2.64113437
Bq   -0.09597683   -3.55114265    2.67816867
Bq    0.09597683   -3.55114265    2.70470153
Bq    0.28793049   -3.55114265    2.72073305
Bq    0.47988414   -3.55114265    2.72628454
Bq    0.67183780   -3.55114265    2.72144770
Bq    0.86379146   -3.55114265    2.70647429
Bq    1.05574511   -3.55114265    2.68187310
Bq    1.24769877   -3.55114265    2.64843489
Bq    1.43965243   -3.55114265    2.60705615
Bq    1.63160608   -3.55114265    2.55824563
Bq    1.82355974   -3.55114265    2.50138379
Bq    2.01551340   -3.55114265    2.43421641
Bq    2.20746706   -3.55114265    2.35346568
Bq    2.39942071   -3.55114265    2.25715116
Bq    2.59137437   -3.55114265    2.14753528
Bq    2.78332803   -3.55114265    2.03129575
Bq    2.97528168   -3.55114265    1.91395092
Bq    3.16723534   -3.55114265    1.79196398
Bq    3.35918900   -3.55114265    1.65359282
Bq    3.55114265   -3.55114265    1.49373825
Bq    3.74309631   -3.55114265    1.32508951
Bq    3.93504997   -3.55114265    1.16121238
Bq    4.12700363   -3.55114265    0.99035570
Bq    4.31895728   -3.55114265    0.79282518
Bq    4.51091094   -3.55114265    0.58270994
Bq    4.70286460   -3.55114265    0.38239263
Bq   -4.70286460   -3.35918900   -1.07151121
Bq   -4.51091094   -3.35918900   -0.80371024
Bq   -4.31895728   -3.35918900   -0.54143804
Bq   -4.12700363   -3.35918900   -0.30734798
Bq   -3.93504997   -3.35918900   -0.08383768
Bq   -3.74309631   -3.35918900    0.14571278
Bq   -3.55114265   -3.35918900    0.36769891
Bq   -3.35918900   -3.35918900    0.56707439
Bq   -3.16723534   -3.35918900    0.75005954
Bq   -2.97528168   -3.35918900    0.93027252
Bq   -2.78332803   -3.35918900    1.11006322
Bq   -2.59137437   -3.35918900    1.28128529
Bq   -2.39942071   -3.35918900    1.43662033
Bq   -2.20746706   -3.35918900    1.57566846
Bq   -2.01551340   -3.35918900    1.70273316
Bq   -1.82355974   -3.35918900    1.82205671
Bq   -1.63160608   -3.35918900    1.93528384
Bq   -1.43965243   -3.35918900    2.04171028
Bq   -1.24769877   -3.35918900    2.13968869
Bq   -1.05574511   -3.35918900    2.22777813
Bq   -0.86379146   -3.35918900    2.30519410
Bq   -0.67183780   -3.35918900    2.37174697
Bq   -0.47988414   -3.35918900    2.42759075
Bq   -0.28793049   -3.35918900    2.47299034
Bq   -0.09597683   -3.35918900    2.50817590
Bq    0.09597683   -3.35918900    2.53327434
Bq    0.28793049   -3.35918900    2.54828578
Bq    0.47988414   -3.35918900    2.55308356
Bq    0.67183780   -3.35918900    2.54743772
Bq    0.86379146   -3.35918900    2.53108360
Bq    1.05574511   -3.35918900    2.50386732
Bq    1.24769877   -3.35918900    2.46597867
Bq    1.43965243   -3.35918900    2.41820226
Bq    1.63160608   -3.35918900    2.36197908
Bq    1.82355974   -3.35918900    2.29895645
Bq    2.01551340   -3.35918900    2.22983865
Bq    2.20746706   -3.35918900    2.15298083
Bq    2.39942071   -3.35918900    2.06414060
Bq    2.59137437   -3.35918900    1.95901431
Bq    2.78332803   -3.35918900    1.83800165
Bq    2.97528168   -3.35918900    1.70842080
Bq    3.16723534   -3.35918900    1.57841790
Bq    3.35918900   -3.35918900    1.44564278
Bq    3.55114265   -3.35918900    1.29647706
Bq    3.74309631   -3.35918900    1.12470018
Bq    3.93504997   -3.35918900    0.94535827
Bq    4.12700363   -3.35918900    0.77205561
Bq    4.31895728   -3.35918900    0.58817213
Bq    4.51091094   -3.35918900    0.37610536
Bq    4.70286460   -3.35918900    0.15850856
Bq   -4.70286460   -3.16723534   -1.20384754
Bq   -4.51091094   -3.16723534   -0.93045094
Bq   -4.31895728   -3.16723534   -0.68376360
Bq   -4.12700363   -3.16723534   -0.45432364
Bq   -3.93504997   -3.16723534   -0.21866738
Bq   -3.74309631   -3.16723534    0.01305728
Bq   -3.55114265   -3.16723534    0.22186971
Bq   -3.35918900   -3.16723534    0.41278033
Bq   -3.16723534   -3.16723534    0.60162746
Bq   -2.97528168   -3.16723534    0.79090077
Bq   -2.78332803   -3.16723534    0.97039489
Bq   -2.59137437   -3.16723534    1.13216895
Bq   -2.39942071   -3.16723534    1.27760124
Bq   -2.20746706   -3.16723534    1.41300659
Bq   -2.01551340   -3.16723534    1.54296191
Bq   -1.82355974   -3.16723534    1.66785690
Bq   -1.63160608   -3.16723534    1.78538376
Bq   -1.43965243   -3.16723534    1.89294583
Bq   -1.24769877   -3.16723534    1.98902850
Bq   -1.05574511   -3.16723534    2.07333517
Bq   -0.86379146   -3.16723534    2.14630965
Bq   -0.67183780   -3.16723534    2.20861939
Bq   -0.47988414   -3.16723534    2.26084496
Bq   -0.28793049   -3.16723534    2.30337667
Bq   -0.09597683   -3.16723534    2.33642958
Bq    0.09597683   -3.16723534    2.36009361
Bq    0.28793049   -3.16723534    2.37436888
Bq    0.47988414   -3.16723534    2.37916571
Bq    0.67183780   -3.16723534    2.37426926
Bq    0.86379146   -3.16723534    2.35928943
Bq    1.05574511   -3.16723534    2.33364582
Bq    1.24769877   -3.16723534    2.29667113
Bq    1.43965243   -3.16723534    2.24792162
Bq    1.63160608   -3.16723534    2.18769398
Bq    1.82355974   -3.16723534    2.11750281
Bq    2.01551340   -3.16723534    2.03994474
Bq    2.20746706   -3.16723534    1.95732747
Bq    2.39942071   -3.16723534    1.86926119
Bq    2.59137437   -3.16723534    1.77116883
Bq    2.78332803   -3.16723534    1.65673536
Bq    2.97528168   -3.16723534    1.52458228
Bq    3.16723534   -3.16723534    1.38265020
Bq    3.35918900   -3.16723534    1.24114428
Bq    3.55114265   -3.16723534    1.09757460
Bq    3.74309631   -3.16723534    0.93610260
Bq    3.93504997   -3.16723534    0.75171766
Bq    4.12700363   -3.16723534    0.56340021
Bq    4.31895728   -3.16723534    0.38129802
Bq    4.51091094   -3.16723534    0.18194727
Bq    4.70286460   -3.16723534   -0.04411398
Bq   -4.70286460   -2.97528168   -1.31896771
Bq   -4.51091094   -2.97528168   -1.05683387
Bq   -4.31895728   -2.97528168   -0.82031906
Bq   -4.12700363   -2.97528168   -0.58089024
Bq   -3.93504997   -2.97528168   -0.33957945
Bq   -3.74309631   -2.97528168   -0.11952182
Bq   -3.55114265   -2.97528168    0.07949757
Bq   -3.35918900   -2.97528168    0.27555533
Bq   -3.16723534   -2.97528168    0.47346280
Bq   -2.97528168   -2.97528168    0.66167499
Bq   -2.78332803   -2.97528168    0.83090197
Bq   -2.59137437   -2.97528168    0.98362059
Bq   -2.39942071   -2.97528168    1.12789519
Bq   -2.20746706   -2.97528168    1.26844455
Bq   -2.01551340   -2.97528168    1.40421844
Bq   -1.82355974   -2.97528168    1.53135344
Bq   -1.63160608   -2.97528168    1.64666298
Bq   -1.43965243   -2.97528168    1.74904799
Bq   -1.24769877   -2.97528168    1.83906936
Bq   -1.05574511   -2.97528168    1.91792280
Bq   -0.86379146   -2.97528168    1.98667345
Bq   -0.67183780   -2.97528168    2.04596126
Bq   -0.47988414   -2.97528168    2.09603255
Bq   -0.28793049   -2.97528168    2.13689573
Bq   -0.09597683   -2.97528168    2.16847326
Bq    0.09597683   -2.97528168    2.19070288
Bq    0.28793049   -2.97528168    2.20358470
Bq    0.47988414   -2.97528168    2.20718124
Bq    0.67183780   -2.97528168    2.20157024
Bq    0.86379146   -2.97528168    2.18674352
Bq    1.05574511   -2.97528168    2.16245491
Bq    1.24769877   -2.97528168    2.12806462
Bq    1.43965243   -2.97528168    2.08250760
Bq    1.63160608   -2.97528168    2.02458819
Bq    1.82355974   -2.97528168    1.95374551
Bq    2.01551340   -2.97528168    1.87107860
Bq    2.20746706   -2.97528168    1.77977394
Bq    2.39942071   -2.97528168    1.68369483
Bq    2.59137437   -2.97528168    1.58389134
Bq    2.78332803   -2.97528168    1.47564448
Bq    2.97528168   -2.97528168    1.35088970
Bq    3.16723534   -2.97528168    1.20714994
Bq    3.35918900   -2.97528168    1.05371485
Bq    3.55114265   -2.97528168    0.90212920
Bq    3.74309631   -2.97528168    0.74758142
Bq    3.93504997   -2.97528168    0.57199468
Bq    4.12700363   -2.97528168    0.37515389
Bq    4.31895728   -2.97528168    0.18019400
Bq    4.51091094   -2.97528168   -0.01185304
Bq    4.70286460   -2.97528168   -0.22952035
Bq   -4.70286460   -2.78332803   -1.42861882
Bq   -4.51091094   -2.78332803   -1.18099742
Bq   -4.31895728   -2.78332803   -0.93982075
Bq   -4.12700363   -2.78332803   -0.69090040
Bq   -3.93504997   -2.78332803   -0.45776792
Bq   -3.74309631   -2.78332803   -0.24953535
Bq   -3.55114265   -2.78332803   -0.04767627
Bq   -3.35918900   -2.78332803    0.15774867
Bq   -3.16723534   -2.78332803    0.35535956
Bq   -2.97528168   -2.78332803    0.53330461
Bq   -2.78332803   -2.78332803    0.69385088
Bq   -2.59137437   -2.78332803    0.84669997
Bq   -2.39942071   -2.78332803    0.99711299
Bq   -2.20746706   -2.78332803    1.14284150
Bq   -2.01551340   -2.78332803    1.27859860
Bq   -1.82355974   -2.78332803    1.40084481
Bq   -1.63160608   -2.78332803    1.50920224
Bq   -1.43965243   -2.78332803    1.60527963
Bq   -1.24769877   -2.78332803    1.69099715
Bq   -1.05574511   -2.78332803    1.76761663
Bq   -0.86379146   -2.78332803    1.83557730
Bq   -0.67183780   -2.78332803    1.89475465
Bq   -0.47988414   -2.78332803    1.94478656
Bq   -0.28793049   -2.78332803    1.98530075
Bq   -0.09597683   -2.78332803    2.01602466
Bq    0.09597683   -2.78332803    2.03681986
Bq    0.28793049   -2.78332803    2.04768648
Bq    0.47988414   -2.78332803    2.04876319
Bq    0.67183780   -2.78332803    2.04032275
Bq    0.86379146   -2.78332803    2.02273766
Bq    1.05574511   -2.78332803    1.99637021
Bq    1.24769877   -2.78332803    1.96134505
Bq    1.43965243   -2.78332803    1.91722305
Bq    1.63160608   -2.78332803    1.86274244
Bq    1.82355974   -2.78332803    1.79598304
Bq    2.01551340   -2.78332803    1.71533610
Bq    2.20746706   -2.78332803    1.62117941
Bq    2.39942071   -2.78332803    1.51705233
Bq    2.59137437   -2.78332803    1.40824158
Bq    2.78332803   -2.78332803    1.29699543
Bq    2.97528168   -2.78332803    1.17805255
Bq    3.16723534   -2.78332803    1.04171108
Bq    3.35918900   -2.78332803    0.88570376
Bq    3.55114265   -2.78332803    0.72188210
Bq    3.74309631   -2.78332803    0.56162581
Bq    3.93504997   -2.78332803    0.39499530
Bq    4.12700363   -2.78332803    0.20346399
Bq    4.31895728   -2.78332803   -0.00385625
Bq    4.51091094   -2.78332803   -0.20343397
Bq    4.70286460   -2.78332803   -0.40945768
Bq   -4.70286460   -2.59137437   -1.53708456
Bq   -4.51091094   -2.59137437   -1.29331942
Bq   -4.31895728   -2.59137437   -1.04104276
Bq   -4.12700363   -2.59137437   -0.79425720
Bq   -3.93504997   -2.59137437   -0.57419436
Bq   -3.74309631   -2.59137437   -0.36724318
Bq   -3.55114265   -2.59137437   -0.15611586
Bq   -3.35918900   -2.59137437    0.05121339
Bq   -3.16723534   -2.59137437    0.23937626
Bq   -2.97528168   -2.59137437    0.40826587
Bq   -2.78332803   -2.59137437    0.56894261
Bq   -2.59137437   -2.59137437    0.72818771
Bq   -2.39942071   -2.59137437    0.88322318
Bq   -2.20746706   -2.59137437    1.02739193
Bq   -2.01551340   -2.59137437    1.15670745
Bq   -1.82355974   -2.59137437    1.27153472
Bq   -1.63160608   -2.59137437    1.37457417
Bq   -1.43965243   -2.59137437    1.46839753
Bq   -1.24769877   -2.59137437    1.55427645
Bq   -1.05574511   -2.59137437    1.63225123
Bq   -0.86379146   -2.59137437    1.70171083
Bq   -0.67183780   -2.59137437    1.76192038
Bq   -0.47988414   -2.59137437    1.81229893
Bq   -0.28793049   -2.59137437    1.85248493
Bq   -0.09597683   -2.59137437    1.88229410
Bq    0.09597683   -2.59137437    1.90165489
Bq    0.28793049   -2.59137437    1.91056743
Bq    0.47988414   -2.59137437    1.90910349
Bq    0.67183780   -2.59137437    1.89744759
Bq    0.86379146   -2.59137437    1.87596148
Bq    1.05574511   -2.59137437    1.84522627
Bq    1.24769877   -2.59137437    1.80597699
Bq    1.43965243   -2.59137437    1.75882477
Bq    1.63160608   -2.59137437    1.70372936
Bq    1.82355974   -2.59137437    1.63941912
Bq    2.01551340   -2.59137437    1.56332229
Bq    2.20746706   -2.59137437    1.47273835
Bq    2.39942071   -2.59137437    1.36730220
Bq    2.59137437   -2.59137437    1.25100019
Bq    2.78332803   -2.59137437    1.13048920
Bq    2.97528168   -2.59137437    1.00854702
Bq    3.16723534   -2.59137437    0.87839218
Bq    3.35918900   -2.59137437    0.72896404
Bq    3.55114265   -2.59137437    0.56036925
Bq    3.74309631   -2.59137437    0.38797589
Bq    3.93504997   -2.59137437    0.21975796
Bq    4.12700363   -2.59137437    0.03842746
Bq    4.31895728   -2.59137437   -0.16962682
Bq    4.51091094   -2.59137437   -0.38317336
Bq    4.70286460   -2.59137437   -0.58820962
Bq   -4.70286460   -2.39942071   -1.63937023
Bq   -4.51091094   -2.39942071   -1.38831814
Bq   -4.31895728   -2.39942071   -1.13081312
Bq   -4.12700363   -2.39942071   -0.89528681
Bq   -3.93504997   -2.39942071   -0.68191011
Bq   -3.74309631   -2.39942071   -0.46750865
Bq   -3.55114265   -2.39942071   -0.25134033
Bq   -3.35918900   -2.39942071   -0.05136950
Bq   -3.16723534   -2.39942071    0.12689062
Bq   -2.97528168   -2.39942071    0.29462254
Bq   -2.78332803   -2.39942071    0.46143771
Bq   -2.59137437   -2.39942071    0.62530526
Bq   -2.39942071   -2.39942071    0.77825095
Bq   -2.20746706   -2.39942071    0.91532950
Bq   -2.01551340   -2.39942071    1.03733462
Bq   -1.82355974   -2.39942071    1.14802633
Bq   -1.63160608   -2.39942071    1.25063686
Bq   -1.43965243   -2.39942071    1.34636746
Bq   -1.24769877   -2.39942071    1.43473844
Bq   -1.05574511   -2.39942071    1.51458677
Bq   -0.86379146   -2.39942071    1.58484027
Bq   -0.67183780   -2.39942071    1.64483240
Bq   -0.47988414   -2.39942071    1.69428735
Bq   -0.28793049   -2.39942071    1.73317298
Bq   -0.09597683   -2.39942071    1.76155146
Bq    0.09597683   -2.39942071    1.77947783
Bq    0.28793049   -2.39942071    1.78695224
Bq    0.47988414   -2.39942071    1.78391985
Bq    0.67183780   -2.39942071    1.77031873
Bq    0.86379146   -2.39942071    1.74618120
Bq    1.05574511   -2.39942071    1.71178328
Bq    1.24769877   -2.39942071    1.66779161
Bq    1.43965243   -2.39942071    1.61527851
Bq    1.63160608   -2.39942071    1.55540704
Bq    1.82355974   -2.39942071    1.48865690