# nmr=giao b3lyp/6-31G* nosymm geom=connectivity guess=huckel

input

0 1
S    -1.81107250    1.47774875   -0.40442375
S    -0.20016250    2.29755875    0.54916625
S     1.44588750    1.79557875   -0.55319375
S     2.32754750    0.21903875    0.40266625
S    -2.28033250   -0.23240125    0.61128625
S    -1.49323250   -1.78218125   -0.46346375
S     0.24750750   -2.31095125    0.46760625
S     1.76385750   -1.46439125   -0.60964375
Bq   -3.00000000   -3.00000000    1.09084836
Bq   -2.87755102   -3.00000000    1.08569102
Bq   -2.75510204   -3.00000000    1.08053566
Bq   -2.63265306   -3.00000000    1.07538229
Bq   -2.51020408   -3.00000000    1.07023092
Bq   -2.38775510   -3.00000000    1.06508153
Bq   -2.26530612   -3.00000000    1.05993413
Bq   -2.14285714   -3.00000000    1.05478872
Bq   -2.02040816   -3.00000000    1.04964530
Bq   -1.89795918   -3.00000000    1.04450387
Bq   -1.77551020   -3.00000000    1.03936443
Bq   -1.65306122   -3.00000000    1.03422698
Bq   -1.53061224   -3.00000000    1.02909152
Bq   -1.40816327   -3.00000000    1.02395805
Bq   -1.28571429   -3.00000000    1.01882657
Bq   -1.16326531   -3.00000000    1.01369708
Bq   -1.04081633   -3.00000000    1.00856957
Bq   -0.91836735   -3.00000000    1.00344406
Bq   -0.79591837   -3.00000000    0.99832054
Bq   -0.67346939   -3.00000000    0.99319900
Bq   -0.55102041   -3.00000000    0.98807946
Bq   -0.42857143   -3.00000000    0.98296190
Bq   -0.30612245   -3.00000000    0.97784634
Bq   -0.18367347   -3.00000000    0.97273276
Bq   -0.06122449   -3.00000000    0.96762118
Bq    0.06122449   -3.00000000    0.96251158
Bq    0.18367347   -3.00000000    0.95740397
Bq    0.30612245   -3.00000000    0.95229835
Bq    0.42857143   -3.00000000    0.94719473
Bq    0.55102041   -3.00000000    0.94209309
Bq    0.67346939   -3.00000000    0.93699344
Bq    0.79591837   -3.00000000    0.93189578
Bq    0.91836735   -3.00000000    0.92680011
Bq    1.04081633   -3.00000000    0.92170643
Bq    1.16326531   -3.00000000    0.91661474
Bq    1.28571429   -3.00000000    0.91152503
Bq    1.40816327   -3.00000000    0.90643732
Bq    1.53061224   -3.00000000    0.90135160
Bq    1.65306122   -3.00000000    0.89626787
Bq    1.77551020   -3.00000000    0.89118612
Bq    1.89795918   -3.00000000    0.88610637
Bq    2.02040816   -3.00000000    0.88102860
Bq    2.14285714   -3.00000000    0.87595283
Bq    2.26530612   -3.00000000    0.87087904
Bq    2.38775510   -3.00000000    0.86580725
Bq    2.51020408   -3.00000000    0.86073744
Bq    2.63265306   -3.00000000    0.85566963
Bq    2.75510204   -3.00000000    0.85060380
Bq    2.87755102   -3.00000000    0.84553996
Bq    3.00000000   -3.00000000    0.84047811
Bq   -3.00000000   -2.87755102    1.09223970
Bq   -2.87755102   -2.87755102    1.08708063
Bq   -2.75510204   -2.87755102    1.08192355
Bq   -2.63265306   -2.87755102    1.07676846
Bq   -2.51020408   -2.87755102    1.07161535
Bq   -2.38775510   -2.87755102    1.06646424
Bq   -2.26530612   -2.87755102    1.06131511
Bq   -2.14285714   -2.87755102    1.05616798
Bq   -2.02040816   -2.87755102    1.05102283
Bq   -1.89795918   -2.87755102    1.04587968
Bq   -1.77551020   -2.87755102    1.04073851
Bq   -1.65306122   -2.87755102    1.03559934
Bq   -1.53061224   -2.87755102    1.03046215
Bq   -1.40816327   -2.87755102    1.02532695
Bq   -1.28571429   -2.87755102    1.02019374
Bq   -1.16326531   -2.87755102    1.01506253
Bq   -1.04081633   -2.87755102    1.00993330
Bq   -0.91836735   -2.87755102    1.00480606
Bq   -0.79591837   -2.87755102    0.99968081
Bq   -0.67346939   -2.87755102    0.99455755
Bq   -0.55102041   -2.87755102    0.98943628
Bq   -0.42857143   -2.87755102    0.98431700
Bq   -0.30612245   -2.87755102    0.97919970
Bq   -0.18367347   -2.87755102    0.97408440
Bq   -0.06122449   -2.87755102    0.96897109
Bq    0.06122449   -2.87755102    0.96385977
Bq    0.18367347   -2.87755102    0.95875043
Bq    0.30612245   -2.87755102    0.95364309
Bq    0.42857143   -2.87755102    0.94853773
Bq    0.55102041   -2.87755102    0.94343437
Bq    0.67346939   -2.87755102    0.93833299
Bq    0.79591837   -2.87755102    0.93323361
Bq    0.91836735   -2.87755102    0.92813621
Bq    1.04081633   -2.87755102    0.92304080
Bq    1.16326531   -2.87755102    0.91794739
Bq    1.28571429   -2.87755102    0.91285596
Bq    1.40816327   -2.87755102    0.90776652
Bq    1.53061224   -2.87755102    0.90267907
Bq    1.65306122   -2.87755102    0.89759361
Bq    1.77551020   -2.87755102    0.89251014
Bq    1.89795918   -2.87755102    0.88742866
Bq    2.02040816   -2.87755102    0.88234917
Bq    2.14285714   -2.87755102    0.87727167
Bq    2.26530612   -2.87755102    0.87219616
Bq    2.38775510   -2.87755102    0.86712264
Bq    2.51020408   -2.87755102    0.86205111
Bq    2.63265306   -2.87755102    0.85698156
Bq    2.75510204   -2.87755102    0.85191401
Bq    2.87755102   -2.87755102    0.84684845
Bq    3.00000000   -2.87755102    0.84178487
Bq   -3.00000000   -2.75510204    1.09363556
Bq   -2.87755102   -2.75510204    1.08847476
Bq   -2.75510204   -2.75510204    1.08331596
Bq   -2.63265306   -2.75510204    1.07815914
Bq   -2.51020408   -2.75510204    1.07300431
Bq   -2.38775510   -2.75510204    1.06785147
Bq   -2.26530612   -2.75510204    1.06270062
Bq   -2.14285714   -2.75510204    1.05755176
Bq   -2.02040816   -2.75510204    1.05240488
Bq   -1.89795918   -2.75510204    1.04726000
Bq   -1.77551020   -2.75510204    1.04211711
Bq   -1.65306122   -2.75510204    1.03697621
Bq   -1.53061224   -2.75510204    1.03183729
Bq   -1.40816327   -2.75510204    1.02670037
Bq   -1.28571429   -2.75510204    1.02156544
Bq   -1.16326531   -2.75510204    1.01643249
Bq   -1.04081633   -2.75510204    1.01130154
Bq   -0.91836735   -2.75510204    1.00617257
Bq   -0.79591837   -2.75510204    1.00104560
Bq   -0.67346939   -2.75510204    0.99592061
Bq   -0.55102041   -2.75510204    0.99079761
Bq   -0.42857143   -2.75510204    0.98567661
Bq   -0.30612245   -2.75510204    0.98055759
Bq   -0.18367347   -2.75510204    0.97544056
Bq   -0.06122449   -2.75510204    0.97032552
Bq    0.06122449   -2.75510204    0.96521247
Bq    0.18367347   -2.75510204    0.96010141
Bq    0.30612245   -2.75510204    0.95499234
Bq    0.42857143   -2.75510204    0.94988526
Bq    0.55102041   -2.75510204    0.94478017
Bq    0.67346939   -2.75510204    0.93967707
Bq    0.79591837   -2.75510204    0.93457596
Bq    0.91836735   -2.75510204    0.92947683
Bq    1.04081633   -2.75510204    0.92437970
Bq    1.16326531   -2.75510204    0.91928456
Bq    1.28571429   -2.75510204    0.91419140
Bq    1.40816327   -2.75510204    0.90910024
Bq    1.53061224   -2.75510204    0.90401106
Bq    1.65306122   -2.75510204    0.89892388
Bq    1.77551020   -2.75510204    0.89383868
Bq    1.89795918   -2.75510204    0.88875548
Bq    2.02040816   -2.75510204    0.88367426
Bq    2.14285714   -2.75510204    0.87859503
Bq    2.26530612   -2.75510204    0.87351779
Bq    2.38775510   -2.75510204    0.86844255
Bq    2.51020408   -2.75510204    0.86336929
Bq    2.63265306   -2.75510204    0.85829802
Bq    2.75510204   -2.75510204    0.85322874
Bq    2.87755102   -2.75510204    0.84816145
Bq    3.00000000   -2.75510204    0.84309615
Bq   -3.00000000   -2.63265306    1.09503594
Bq   -2.87755102   -2.63265306    1.08987342
Bq   -2.75510204   -2.63265306    1.08471288
Bq   -2.63265306   -2.63265306    1.07955434
Bq   -2.51020408   -2.63265306    1.07439778
Bq   -2.38775510   -2.63265306    1.06924321
Bq   -2.26530612   -2.63265306    1.06409064
Bq   -2.14285714   -2.63265306    1.05894005
Bq   -2.02040816   -2.63265306    1.05379145
Bq   -1.89795918   -2.63265306    1.04864484
Bq   -1.77551020   -2.63265306    1.04350023
Bq   -1.65306122   -2.63265306    1.03835760
Bq   -1.53061224   -2.63265306    1.03321696
Bq   -1.40816327   -2.63265306    1.02807831
Bq   -1.28571429   -2.63265306    1.02294165
Bq   -1.16326531   -2.63265306    1.01780698
Bq   -1.04081633   -2.63265306    1.01267430
Bq   -0.91836735   -2.63265306    1.00754360
Bq   -0.79591837   -2.63265306    1.00241490
Bq   -0.67346939   -2.63265306    0.99728819
Bq   -0.55102041   -2.63265306    0.99216347
Bq   -0.42857143   -2.63265306    0.98704073
Bq   -0.30612245   -2.63265306    0.98191999
Bq   -0.18367347   -2.63265306    0.97680123
Bq   -0.06122449   -2.63265306    0.97168447
Bq    0.06122449   -2.63265306    0.96656969
Bq    0.18367347   -2.63265306    0.96145691
Bq    0.30612245   -2.63265306    0.95634611
Bq    0.42857143   -2.63265306    0.95123730
Bq    0.55102041   -2.63265306    0.94613049
Bq    0.67346939   -2.63265306    0.94102566
Bq    0.79591837   -2.63265306    0.93592282
Bq    0.91836735   -2.63265306    0.93082197
Bq    1.04081633   -2.63265306    0.92572311
Bq    1.16326531   -2.63265306    0.92062624
Bq    1.28571429   -2.63265306    0.91553136
Bq    1.40816327   -2.63265306    0.91043847
Bq    1.53061224   -2.63265306    0.90534757
Bq    1.65306122   -2.63265306    0.90025866
Bq    1.77551020   -2.63265306    0.89517174
Bq    1.89795918   -2.63265306    0.89008681
Bq    2.02040816   -2.63265306    0.88500386
Bq    2.14285714   -2.63265306    0.87992291
Bq    2.26530612   -2.63265306    0.87484395
Bq    2.38775510   -2.63265306    0.86976697
Bq    2.51020408   -2.63265306    0.86469199
Bq    2.63265306   -2.63265306    0.85961899
Bq    2.75510204   -2.63265306    0.85454798
Bq    2.87755102   -2.63265306    0.84947897
Bq    3.00000000   -2.63265306    0.84441194
Bq   -3.00000000   -2.51020408    1.09644083
Bq   -2.87755102   -2.51020408    1.09127658
Bq   -2.75510204   -2.51020408    1.08611432
Bq   -2.63265306   -2.51020408    1.08095405
Bq   -2.51020408   -2.51020408    1.07579577
Bq   -2.38775510   -2.51020408    1.07063948
Bq   -2.26530612   -2.51020408    1.06548517
Bq   -2.14285714   -2.51020408    1.06033286
Bq   -2.02040816   -2.51020408    1.05518254
Bq   -1.89795918   -2.51020408    1.05003420
Bq   -1.77551020   -2.51020408    1.04488786
Bq   -1.65306122   -2.51020408    1.03974350
Bq   -1.53061224   -2.51020408    1.03460114
Bq   -1.40816327   -2.51020408    1.02946076
Bq   -1.28571429   -2.51020408    1.02432238
Bq   -1.16326531   -2.51020408    1.01918598
Bq   -1.04081633   -2.51020408    1.01405157
Bq   -0.91836735   -2.51020408    1.00891915
Bq   -0.79591837   -2.51020408    1.00378873
Bq   -0.67346939   -2.51020408    0.99866029
Bq   -0.55102041   -2.51020408    0.99353384
Bq   -0.42857143   -2.51020408    0.98840938
Bq   -0.30612245   -2.51020408    0.98328691
Bq   -0.18367347   -2.51020408    0.97816643
Bq   -0.06122449   -2.51020408    0.97304794
Bq    0.06122449   -2.51020408    0.96793143
Bq    0.18367347   -2.51020408    0.96281692
Bq    0.30612245   -2.51020408    0.95770440
Bq    0.42857143   -2.51020408    0.95259387
Bq    0.55102041   -2.51020408    0.94748532
Bq    0.67346939   -2.51020408    0.94237877
Bq    0.79591837   -2.51020408    0.93727420
Bq    0.91836735   -2.51020408    0.93217163
Bq    1.04081633   -2.51020408    0.92707104
Bq    1.16326531   -2.51020408    0.92197245
Bq    1.28571429   -2.51020408    0.91687584
Bq    1.40816327   -2.51020408    0.91178122
Bq    1.53061224   -2.51020408    0.90668860
Bq    1.65306122   -2.51020408    0.90159796
Bq    1.77551020   -2.51020408    0.89650931
Bq    1.89795918   -2.51020408    0.89142265
Bq    2.02040816   -2.51020408    0.88633798
Bq    2.14285714   -2.51020408    0.88125530
Bq    2.26530612   -2.51020408    0.87617461
Bq    2.38775510   -2.51020408    0.87109591
Bq    2.51020408   -2.51020408    0.86601920
Bq    2.63265306   -2.51020408    0.86094448
Bq    2.75510204   -2.51020408    0.85587175
Bq    2.87755102   -2.51020408    0.85080101
Bq    3.00000000   -2.51020408    0.84573225
Bq   -3.00000000   -2.38775510    1.09785025
Bq   -2.87755102   -2.38775510    1.09268427
Bq   -2.75510204   -2.38775510    1.08752028
Bq   -2.63265306   -2.38775510    1.08235829
Bq   -2.51020408   -2.38775510    1.07719828
Bq   -2.38775510   -2.38775510    1.07204026
Bq   -2.26530612   -2.38775510    1.06688423
Bq   -2.14285714   -2.38775510    1.06173019
Bq   -2.02040816   -2.38775510    1.05657814
Bq   -1.89795918   -2.38775510    1.05142808
Bq   -1.77551020   -2.38775510    1.04628001
Bq   -1.65306122   -2.38775510    1.04113393
Bq   -1.53061224   -2.38775510    1.03598984
Bq   -1.40816327   -2.38775510    1.03084774
Bq   -1.28571429   -2.38775510    1.02570762
Bq   -1.16326531   -2.38775510    1.02056950
Bq   -1.04081633   -2.38775510    1.01543337
Bq   -0.91836735   -2.38775510    1.01029922
Bq   -0.79591837   -2.38775510    1.00516707
Bq   -0.67346939   -2.38775510    1.00003690
Bq   -0.55102041   -2.38775510    0.99490873
Bq   -0.42857143   -2.38775510    0.98978254
Bq   -0.30612245   -2.38775510    0.98465834
Bq   -0.18367347   -2.38775510    0.97953614
Bq   -0.06122449   -2.38775510    0.97441592
Bq    0.06122449   -2.38775510    0.96929769
Bq    0.18367347   -2.38775510    0.96418145
Bq    0.30612245   -2.38775510    0.95906721
Bq    0.42857143   -2.38775510    0.95395495
Bq    0.55102041   -2.38775510    0.94884468
Bq    0.67346939   -2.38775510    0.94373640
Bq    0.79591837   -2.38775510    0.93863011
Bq    0.91836735   -2.38775510    0.93352580
Bq    1.04081633   -2.38775510    0.92842349
Bq    1.16326531   -2.38775510    0.92332317
Bq    1.28571429   -2.38775510    0.91822484
Bq    1.40816327   -2.38775510    0.91312850
Bq    1.53061224   -2.38775510    0.90803414
Bq    1.65306122   -2.38775510    0.90294178
Bq    1.77551020   -2.38775510    0.89785140
Bq    1.89795918   -2.38775510    0.89276302
Bq    2.02040816   -2.38775510    0.88767662
Bq    2.14285714   -2.38775510    0.88259222
Bq    2.26530612   -2.38775510    0.87750980
Bq    2.38775510   -2.38775510    0.87242937
Bq    2.51020408   -2.38775510    0.86735094
Bq    2.63265306   -2.38775510    0.86227449
Bq    2.75510204   -2.38775510    0.85720003
Bq    2.87755102   -2.38775510    0.85212756
Bq    3.00000000   -2.38775510    0.84705708
Bq   -3.00000000   -2.26530612    1.09926418
Bq   -2.87755102   -2.26530612    1.09409647
Bq   -2.75510204   -2.26530612    1.08893076
Bq   -2.63265306   -2.26530612    1.08376704
Bq   -2.51020408   -2.26530612    1.07860530
Bq   -2.38775510   -2.26530612    1.07344556
Bq   -2.26530612   -2.26530612    1.06828780
Bq   -2.14285714   -2.26530612    1.06313204
Bq   -2.02040816   -2.26530612    1.05797826
Bq   -1.89795918   -2.26530612    1.05282648
Bq   -1.77551020   -2.26530612    1.04767668
Bq   -1.65306122   -2.26530612    1.04252887
Bq   -1.53061224   -2.26530612    1.03738305
Bq   -1.40816327   -2.26530612    1.03223923
Bq   -1.28571429   -2.26530612    1.02709739
Bq   -1.16326531   -2.26530612    1.02195754
Bq   -1.04081633   -2.26530612    1.01681968
Bq   -0.91836735   -2.26530612    1.01168381
Bq   -0.79591837   -2.26530612    1.00654993
Bq   -0.67346939   -2.26530612    1.00141804
Bq   -0.55102041   -2.26530612    0.99628813
Bq   -0.42857143   -2.26530612    0.99116022
Bq   -0.30612245   -2.26530612    0.98603430
Bq   -0.18367347   -2.26530612    0.98091037
Bq   -0.06122449   -2.26530612    0.97578842
Bq    0.06122449   -2.26530612    0.97066847
Bq    0.18367347   -2.26530612    0.96555050
Bq    0.30612245   -2.26530612    0.96043453
Bq    0.42857143   -2.26530612    0.95532054
Bq    0.55102041   -2.26530612    0.95020855
Bq    0.67346939   -2.26530612    0.94509854
Bq    0.79591837   -2.26530612    0.93999052
Bq    0.91836735   -2.26530612    0.93488450
Bq    1.04081633   -2.26530612    0.92978046
Bq    1.16326531   -2.26530612    0.92467841
Bq    1.28571429   -2.26530612    0.91957835
Bq    1.40816327   -2.26530612    0.91448028
Bq    1.53061224   -2.26530612    0.90938420
Bq    1.65306122   -2.26530612    0.90429011
Bq    1.77551020   -2.26530612    0.89919801
Bq    1.89795918   -2.26530612    0.89410790
Bq    2.02040816   -2.26530612    0.88901978
Bq    2.14285714   -2.26530612    0.88393365
Bq    2.26530612   -2.26530612    0.87884951
Bq    2.38775510   -2.26530612    0.87376735
Bq    2.51020408   -2.26530612    0.86868719
Bq    2.63265306   -2.26530612    0.86360902
Bq    2.75510204   -2.26530612    0.85853283
Bq    2.87755102   -2.26530612    0.85345864
Bq    3.00000000   -2.26530612    0.84838643
Bq   -3.00000000   -2.14285714    1.10068263
Bq   -2.87755102   -2.14285714    1.09551320
Bq   -2.75510204   -2.14285714    1.09034576
Bq   -2.63265306   -2.14285714    1.08518031
Bq   -2.51020408   -2.14285714    1.08001685
Bq   -2.38775510   -2.14285714    1.07485538
Bq   -2.26530612   -2.14285714    1.06969590
Bq   -2.14285714   -2.14285714    1.06453840
Bq   -2.02040816   -2.14285714    1.05938290
Bq   -1.89795918   -2.14285714    1.05422939
Bq   -1.77551020   -2.14285714    1.04907787
Bq   -1.65306122   -2.14285714    1.04392833
Bq   -1.53061224   -2.14285714    1.03878079
Bq   -1.40816327   -2.14285714    1.03363523
Bq   -1.28571429   -2.14285714    1.02849167
Bq   -1.16326531   -2.14285714    1.02335009
Bq   -1.04081633   -2.14285714    1.01821051
Bq   -0.91836735   -2.14285714    1.01307291
Bq   -0.79591837   -2.14285714    1.00793730
Bq   -0.67346939   -2.14285714    1.00280369
Bq   -0.55102041   -2.14285714    0.99767206
Bq   -0.42857143   -2.14285714    0.99254242
Bq   -0.30612245   -2.14285714    0.98741477
Bq   -0.18367347   -2.14285714    0.98228911
Bq   -0.06122449   -2.14285714    0.97716544
Bq    0.06122449   -2.14285714    0.97204376
Bq    0.18367347   -2.14285714    0.96692407
Bq    0.30612245   -2.14285714    0.96180637
Bq    0.42857143   -2.14285714    0.95669066
Bq    0.55102041   -2.14285714    0.95157694
Bq    0.67346939   -2.14285714    0.94646520
Bq    0.79591837   -2.14285714    0.94135546
Bq    0.91836735   -2.14285714    0.93624771
Bq    1.04081633   -2.14285714    0.93114194
Bq    1.16326531   -2.14285714    0.92603817
Bq    1.28571429   -2.14285714    0.92093638
Bq    1.40816327   -2.14285714    0.91583659
Bq    1.53061224   -2.14285714    0.91073878
Bq    1.65306122   -2.14285714    0.90564297
Bq    1.77551020   -2.14285714    0.90054914
Bq    1.89795918   -2.14285714    0.89545730
Bq    2.02040816   -2.14285714    0.89036746
Bq    2.14285714   -2.14285714    0.88527960
Bq    2.26530612   -2.14285714    0.88019373
Bq    2.38775510   -2.14285714    0.87510985
Bq    2.51020408   -2.14285714    0.87002796
Bq    2.63265306   -2.14285714    0.86494806
Bq    2.75510204   -2.14285714    0.85987015
Bq    2.87755102   -2.14285714    0.85479423
Bq    3.00000000   -2.14285714    0.84972030
Bq   -3.00000000   -2.02040816    1.10210559
Bq   -2.87755102   -2.02040816    1.09693444
Bq   -2.75510204   -2.02040816    1.09176527
Bq   -2.63265306   -2.02040816    1.08659810
Bq   -2.51020408   -2.02040816    1.08143291
Bq   -2.38775510   -2.02040816    1.07626971
Bq   -2.26530612   -2.02040816    1.07110850
Bq   -2.14285714   -2.02040816    1.06594929
Bq   -2.02040816   -2.02040816    1.06079206
Bq   -1.89795918   -2.02040816    1.05563682
Bq   -1.77551020   -2.02040816    1.05048357
Bq   -1.65306122   -2.02040816    1.04533231
Bq   -1.53061224   -2.02040816    1.04018304
Bq   -1.40816327   -2.02040816    1.03503576
Bq   -1.28571429   -2.02040816    1.02989047
Bq   -1.16326531   -2.02040816    1.02474717
Bq   -1.04081633   -2.02040816    1.01960585
Bq   -0.91836735   -2.02040816    1.01446653
Bq   -0.79591837   -2.02040816    1.00932920
Bq   -0.67346939   -2.02040816    1.00419386
Bq   -0.55102041   -2.02040816    0.99906050
Bq   -0.42857143   -2.02040816    0.99392914
Bq   -0.30612245   -2.02040816    0.98879976
Bq   -0.18367347   -2.02040816    0.98367238
Bq   -0.06122449   -2.02040816    0.97854698
Bq    0.06122449   -2.02040816    0.97342357
Bq    0.18367347   -2.02040816    0.96830216
Bq    0.30612245   -2.02040816    0.96318273
Bq    0.42857143   -2.02040816    0.95806529
Bq    0.55102041   -2.02040816    0.95294984
Bq    0.67346939   -2.02040816    0.94783638
Bq    0.79591837   -2.02040816    0.94272492
Bq    0.91836735   -2.02040816    0.93761544
Bq    1.04081633   -2.02040816    0.93250795
Bq    1.16326531   -2.02040816    0.92740245
Bq    1.28571429   -2.02040816    0.92229893
Bq    1.40816327   -2.02040816    0.91719741
Bq    1.53061224   -2.02040816    0.91209788
Bq    1.65306122   -2.02040816    0.90700034
Bq    1.77551020   -2.02040816    0.90190479
Bq    1.89795918   -2.02040816    0.89681122
Bq    2.02040816   -2.02040816    0.89171965
Bq    2.14285714   -2.02040816    0.88663006
Bq    2.26530612   -2.02040816    0.88154247
Bq    2.38775510   -2.02040816    0.87645686
Bq    2.51020408   -2.02040816    0.87137325
Bq    2.63265306   -2.02040816    0.86629162
Bq    2.75510204   -2.02040816    0.86121198
Bq    2.87755102   -2.02040816    0.85613434
Bq    3.00000000   -2.02040816    0.85105868
Bq   -3.00000000   -1.89795918    1.10353308
Bq   -2.87755102   -1.89795918    1.09836020
Bq   -2.75510204   -1.89795918    1.09318930
Bq   -2.63265306   -1.89795918    1.08802040
Bq   -2.51020408   -1.89795918    1.08285349
Bq   -2.38775510   -1.89795918    1.07768857
Bq   -2.26530612   -1.89795918    1.07252563
Bq   -2.14285714   -1.89795918    1.06736469
Bq   -2.02040816   -1.89795918    1.06220573
Bq   -1.89795918   -1.89795918    1.05704877
Bq   -1.77551020   -1.89795918    1.05189379
Bq   -1.65306122   -1.89795918    1.04674081
Bq   -1.53061224   -1.89795918    1.04158981
Bq   -1.40816327   -1.89795918    1.03644080
Bq   -1.28571429   -1.89795918    1.03129379
Bq   -1.16326531   -1.89795918    1.02614876
Bq   -1.04081633   -1.89795918    1.02100572
Bq   -0.91836735   -1.89795918    1.01586467
Bq   -0.79591837   -1.89795918    1.01072561
Bq   -0.67346939   -1.89795918    1.00558854
Bq   -0.55102041   -1.89795918    1.00045346
Bq   -0.42857143   -1.89795918    0.99532037
Bq   -0.30612245   -1.89795918    0.99018927
Bq   -0.18367347   -1.89795918    0.98506016
Bq   -0.06122449   -1.89795918    0.97993304
Bq    0.06122449   -1.89795918    0.97480790
Bq    0.18367347   -1.89795918    0.96968476
Bq    0.30612245   -1.89795918    0.96456361
Bq    0.42857143   -1.89795918    0.95944444
Bq    0.55102041   -1.89795918    0.95432727
Bq    0.67346939   -1.89795918    0.94921208
Bq    0.79591837   -1.89795918    0.94409889
Bq    0.91836735   -1.89795918    0.93898768
Bq    1.04081633   -1.89795918    0.93387847
Bq    1.16326531   -1.89795918    0.92877124
Bq    1.28571429   -1.89795918    0.92366600
Bq    1.40816327   -1.89795918    0.91856275
Bq    1.53061224   -1.89795918    0.91346150
Bq    1.65306122   -1.89795918    0.90836223
Bq    1.77551020   -1.89795918    0.90326495
Bq    1.89795918   -1.89795918    0.89816966
Bq    2.02040816   -1.89795918    0.89307636
Bq    2.14285714   -1.89795918    0.88798505
Bq    2.26530612   -1.89795918    0.88289573
Bq    2.38775510   -1.89795918    0.87780840
Bq    2.51020408   -1.89795918    0.87272305
Bq    2.63265306   -1.89795918    0.86763970
Bq    2.75510204   -1.89795918    0.86255834
Bq    2.87755102   -1.89795918    0.85747897
Bq    3.00000000   -1.89795918    0.85240158
Bq   -3.00000000   -1.77551020    1.10496508
Bq   -2.87755102   -1.77551020    1.09979047
Bq   -2.75510204   -1.77551020    1.09461785
Bq   -2.63265306   -1.77551020    1.08944722
Bq   -2.51020408   -1.77551020    1.08427859
Bq   -2.38775510   -1.77551020    1.07911194
Bq   -2.26530612   -1.77551020    1.07394728
Bq   -2.14285714   -1.77551020    1.06878461
Bq   -2.02040816   -1.77551020    1.06362393
Bq   -1.89795918   -1.77551020    1.05846523
Bq   -1.77551020   -1.77551020    1.05330853
Bq   -1.65306122   -1.77551020    1.04815382
Bq   -1.53061224   -1.77551020    1.04300110
Bq   -1.40816327   -1.77551020    1.03785036
Bq   -1.28571429   -1.77551020    1.03270162
Bq   -1.16326531   -1.77551020    1.02755487
Bq   -1.04081633   -1.77551020    1.02241010
Bq   -0.91836735   -1.77551020    1.01726733
Bq   -0.79591837   -1.77551020    1.01212654
Bq   -0.67346939   -1.77551020    1.00698775
Bq   -0.55102041   -1.77551020    1.00185094
Bq   -0.42857143   -1.77551020    0.99671612
Bq   -0.30612245   -1.77551020    0.99158330
Bq   -0.18367347   -1.77551020    0.98645246
Bq   -0.06122449   -1.77551020    0.98132361
Bq    0.06122449   -1.77551020    0.97619675
Bq    0.18367347   -1.77551020    0.97107188
Bq    0.30612245   -1.77551020    0.96594900
Bq    0.42857143   -1.77551020    0.96082811
Bq    0.55102041   -1.77551020    0.95570921
Bq    0.67346939   -1.77551020    0.95059230
Bq    0.79591837   -1.77551020    0.94547738
Bq    0.91836735   -1.77551020    0.94036445
Bq    1.04081633   -1.77551020    0.93525350
Bq    1.16326531   -1.77551020    0.93014455
Bq    1.28571429   -1.77551020    0.92503759
Bq    1.40816327   -1.77551020    0.91993261
Bq    1.53061224   -1.77551020    0.91482963
Bq    1.65306122   -1.77551020    0.90972863
Bq    1.77551020   -1.77551020    0.90462963
Bq    1.89795918   -1.77551020    0.89953261
Bq    2.02040816   -1.77551020    0.89443759
Bq    2.14285714   -1.77551020    0.88934455
Bq    2.26530612   -1.77551020    0.88425350
Bq    2.38775510   -1.77551020    0.87916445
Bq    2.51020408   -1.77551020    0.87407738
Bq    2.63265306   -1.77551020    0.86899230
Bq    2.75510204   -1.77551020    0.86390921
Bq    2.87755102   -1.77551020    0.85882811
Bq    3.00000000   -1.77551020    0.85374900
Bq   -3.00000000   -1.65306122    1.10640160
Bq   -2.87755102   -1.65306122    1.10122526
Bq   -2.75510204   -1.65306122    1.09605092
Bq   -2.63265306   -1.65306122    1.09087857
Bq   -2.51020408   -1.65306122    1.08570820
Bq   -2.38775510   -1.65306122    1.08053982
Bq   -2.26530612   -1.65306122    1.07537344
Bq   -2.14285714   -1.65306122    1.07020904
Bq   -2.02040816   -1.65306122    1.06504664
Bq   -1.89795918   -1.65306122    1.05988622
Bq   -1.77551020   -1.65306122    1.05472779
Bq   -1.65306122   -1.65306122    1.04957135
Bq   -1.53061224   -1.65306122    1.04441690
Bq   -1.40816327   -1.65306122    1.03926444
Bq   -1.28571429   -1.65306122    1.03411397
Bq   -1.16326531   -1.65306122    1.02896549
Bq   -1.04081633   -1.65306122    1.02381900
Bq   -0.91836735   -1.65306122    1.01867450
Bq   -0.79591837   -1.65306122    1.01353199
Bq   -0.67346939   -1.65306122    1.00839147
Bq   -0.55102041   -1.65306122    1.00325294
Bq   -0.42857143   -1.65306122    0.99811639
Bq   -0.30612245   -1.65306122    0.99298184
Bq   -0.18367347   -1.65306122    0.98784928
Bq   -0.06122449   -1.65306122    0.98271870
Bq    0.06122449   -1.65306122    0.97759012
Bq    0.18367347   -1.65306122    0.97246352
Bq    0.30612245   -1.65306122    0.96733891
Bq    0.42857143   -1.65306122    0.96221630
Bq    0.55102041   -1.65306122    0.95709567
Bq    0.67346939   -1.65306122    0.95197703
Bq    0.79591837   -1.65306122    0.94686039
Bq    0.91836735   -1.65306122    0.94174573
Bq    1.04081633   -1.65306122    0.93663306
Bq    1.16326531   -1.65306122    0.93152238
Bq    1.28571429   -1.65306122    0.92641369
Bq    1.40816327   -1.65306122    0.92130699
Bq    1.53061224   -1.65306122    0.91620228
Bq    1.65306122   -1.65306122    0.91109956
Bq    1.77551020   -1.65306122    0.90599883
Bq    1.89795918   -1.65306122    0.90090009
Bq    2.02040816   -1.65306122    0.89580333
Bq    2.14285714   -1.65306122    0.89070857
Bq    2.26530612   -1.65306122    0.88561580
Bq    2.38775510   -1.65306122    0.88052501
Bq    2.51020408   -1.65306122    0.87543622
Bq    2.63265306   -1.65306122    0.87034941
Bq    2.75510204   -1.65306122    0.86526460
Bq    2.87755102   -1.65306122    0.86018177
Bq    3.00000000   -1.65306122    0.85510094
Bq   -3.00000000   -1.53061224    1.10784264
Bq   -2.87755102   -1.53061224    1.10266458
Bq   -2.75510204   -1.53061224    1.09748851
Bq   -2.63265306   -1.53061224    1.09231442
Bq   -2.51020408   -1.53061224    1.08714233
Bq   -2.38775510   -1.53061224    1.08197223
Bq   -2.26530612   -1.53061224    1.07680412
Bq   -2.14285714   -1.53061224    1.07163800
Bq   -2.02040816   -1.53061224    1.06647386
Bq   -1.89795918   -1.53061224    1.06131172
Bq   -1.77551020   -1.53061224    1.05615157
Bq   -1.65306122   -1.53061224    1.05099340
Bq   -1.53061224   -1.53061224    1.04583723
Bq   -1.40816327   -1.53061224    1.04068304
Bq   -1.28571429   -1.53061224    1.03553084
Bq   -1.16326531   -1.53061224    1.03038064
Bq   -1.04081633   -1.53061224    1.02523242
Bq   -0.91836735   -1.53061224    1.02008619
Bq   -0.79591837   -1.53061224    1.01494196
Bq   -0.67346939   -1.53061224    1.00979971
Bq   -0.55102041   -1.53061224    1.00465945
Bq   -0.42857143   -1.53061224    0.99952118
Bq   -0.30612245   -1.53061224    0.99438490
Bq   -0.18367347   -1.53061224    0.98925061
Bq   -0.06122449   -1.53061224    0.98411831
Bq    0.06122449   -1.53061224    0.97898800
Bq    0.18367347   -1.53061224    0.97385968
Bq    0.30612245   -1.53061224    0.96873335
Bq    0.42857143   -1.53061224    0.96360900
Bq    0.55102041   -1.53061224    0.95848665
Bq    0.67346939   -1.53061224    0.95336629
Bq    0.79591837   -1.53061224    0.94824791
Bq    0.91836735   -1.53061224    0.94313153
Bq    1.04081633   -1.53061224    0.93801713
Bq    1.16326531   -1.53061224    0.93290473
Bq    1.28571429   -1.53061224    0.92779431
Bq    1.40816327   -1.53061224    0.92268589
Bq    1.53061224   -1.53061224    0.91757945
Bq    1.65306122   -1.53061224    0.91247500
Bq    1.77551020   -1.53061224    0.90737254
Bq    1.89795918   -1.53061224    0.90227208
Bq    2.02040816   -1.53061224    0.89717360
Bq    2.14285714   -1.53061224    0.89207711
Bq    2.26530612   -1.53061224    0.88698261
Bq    2.38775510   -1.53061224    0.88189010
Bq    2.51020408   -1.53061224    0.87679958
Bq    2.63265306   -1.53061224    0.87171105
Bq    2.75510204   -1.53061224    0.86662451
Bq    2.87755102   -1.53061224    0.86153995
Bq    3.00000000   -1.53061224    0.85645739
Bq   -3.00000000   -1.40816327    1.10928819
Bq   -2.87755102   -1.40816327    1.10410840
Bq   -2.75510204   -1.40816327    1.09893061
Bq   -2.63265306   -1.40816327    1.09375480
Bq   -2.51020408   -1.40816327    1.08858098
Bq   -2.38775510   -1.40816327    1.08340916
Bq   -2.26530612   -1.40816327    1.07823932